1-pos-1
1.000
11.0985002518  0.0000000000000000  0.0000000000000000
0.0000000000000000  14.4173002243  0.0000000000000000
0.0000000000000000  0.0000000000000000  26.7964000702
Pt  H  C  O  K  
96  166  6  81  2  
Direct
  0.0000000000000000  0.0000000000000000  0.0018699899937576
  0.1249999521128992  0.1666699702868031  0.0018699899937576
  0.2499999943280624  0.0000000000000000  0.0018699899937576
  0.3750000365432257  0.1666699702868031  0.0018699899937576
  0.4999999886561249  0.0000000000000000  0.0018699899937576
  0.6250000308712881  0.1666699702868031  0.0018699899937576
  0.7499999829841874  0.0000000000000000  0.0018699899937576
  0.8750000251993506  0.1666699702868031  0.0018699899937576
  0.0000000000000000  0.3333300219343480  0.0018699899937576
  0.1249999521128992  0.4999999922211510  0.0018699899937576
  0.2499999943280624  0.3333300219343480  0.0018699899937576
  0.3750000365432257  0.4999999922211510  0.0018699899937576
  0.4999999886561249  0.3333300219343480  0.0018699899937576
  0.6250000308712881  0.4999999922211510  0.0018699899937576
  0.7499999829841874  0.3333300219343480  0.0018699899937576
  0.8750000251993506  0.4999999922211510  0.0018699899937576
  0.0000000000000000  0.6666699625079541  0.0018699899937576
  0.1249999521128992  0.8333300141554991  0.0018699899937576
  0.2499999943280624  0.6666699625079541  0.0018699899937576
  0.3750000365432257  0.8333300141554991  0.0018699899937576
  0.4999999886561249  0.6666699625079541  0.0018699899937576
  0.6250000308712881  0.8333300141554991  0.0018699899937576
  0.7499999829841874  0.6666699625079541  0.0018699899937576
  0.8750000251993506  0.8333300141554991  0.0018699899937576
  0.0000000000000000  0.2222199683821562  0.0864100026098289
  0.1249999521128992  0.0555599860957249  0.0864100026098289
  0.2499999943280624  0.2222199683821562  0.0864100026098289
  0.3750000365432257  0.0555599860957249  0.0864100026098289
  0.4999999886561249  0.2222199683821562  0.0864100026098289
  0.6250000308712881  0.0555599860957249  0.0864100026098289
  0.7499999829841874  0.2222199683821562  0.0864100026098289
  0.8750000251993506  0.0555599860957249  0.0864100026098289
  0.0000000000000000  0.5555599783168760  0.0864100026098289
  0.1249999521128992  0.3888900080300730  0.0864100026098289
  0.2499999943280624  0.5555599783168760  0.0864100026098289
  0.3750000365432257  0.3888900080300730  0.0864100026098289
  0.4999999886561249  0.5555599783168760  0.0864100026098289
  0.6250000308712881  0.3888900080300730  0.0864100026098289
  0.7499999829841874  0.5555599783168760  0.0864100026098289
  0.8750000251993506  0.3888900080300730  0.0864100026098289
  0.0000000000000000  0.8888900002512240  0.0864100026098289
  0.1249999521128992  0.7222199606033073  0.0864100026098289
  0.2499999943280624  0.8888900002512240  0.0864100026098289
  0.3750000365432257  0.7222199606033073  0.0864100026098289
  0.4999999886561249  0.8888900002512240  0.0864100026098289
  0.6250000308712881  0.7222199606033073  0.0864100026098289
  0.7499999829841874  0.8888900002512240  0.0864100026098289
  0.8750000251993506  0.7222199606033073  0.0864100026098289
  0.8747355324811092  0.2865804617105839  0.1731310539604649
  0.0016940801886228  0.4488252965831664  0.1725599424208585
  0.1215053816015628  0.6181182260101463  0.1705159705232710
  0.1271793479187494  0.9534914197409968  0.1747390761271408
  0.0009138757102208  0.1259577041226642  0.1726263089549952
  0.7542540169283090  0.7859049935370360  0.1678830686814127
  0.1268038319206014  0.2867437840846323  0.1726229993126638
  0.0082756299244219  0.7860397704002330  0.1704018964016729
  0.2589552426719889  0.7812962647968238  0.1712233103095984
  0.8722259820762713  0.9544949337328618  0.1716806782682755
  0.3770566560487574  0.9490462025711428  0.1704433537465808
  0.8744406987625203  0.6186747800233918  0.1703534246220086
  0.2494193089513194  0.1219093468718646  0.1711200840369367
  0.4968637943316391  0.1188534422423875  0.1706151659858345
  0.6221595613857929  0.9440255415337873  0.1697569559673337
  0.2587704844566015  0.4489929284325696  0.1680189593230833
  0.7455967800115989  0.1137720516380271  0.1694234287033510
  0.7460469721444675  0.4458678306126560  0.1724226776095270
  0.6269519185685909  0.2835898029513714  0.1702515212695863
  0.3827294262583890  0.2846038252282578  0.1738541737059992
  0.3708427629609219  0.6173360413552833  0.1729657751174711
  0.5063078200037564  0.7769711355819311  0.1723583131988046
  0.5023822448439114  0.4500879817056777  0.1713575854768065
  0.6294724050726538  0.6143606438999609  0.1720447331030459
  -0.0100330943527204  0.0208706494086073  0.2604294624508461
  0.1261141405184898  0.5225376003686416  0.2549854333156701
  0.8859786621444854  0.8508039722600397  0.2605422975627297
  0.2482663663636103  0.3520501374761678  0.2609614639235310
  0.8765570271012244  0.1845430530478656  0.2621938042906508
  0.6276010519142275  0.8441395882349324  0.2559027711384972
  0.7617624595655460  0.3477265679430220  0.2586019474536185
  0.2515807496014747  0.6829550631403368  0.2589821153483101
  0.1359820702491071  0.8521549382867559  0.2614155643985247
  0.7633298527182542  0.6848794120939113  0.2538998843231265
  0.0088303703181973  0.6959640256979649  0.2592826465681344
  0.0084125576953388  0.3540375922044605  0.2607717824332306
  0.2477233065570366  0.0183590964939382  0.2622385766069640
  0.8876058446367391  0.5163280101605451  0.2563361266030215
  0.5075069964148072  0.0181597733297332  0.2596217735208667
  0.3749585866545413  0.8447488389034586  0.2567416020986677
  0.6215460858850020  0.1747367371565099  0.2551116175751655
  0.3666333580287174  0.1801819399877363  0.2582876843370081
  0.1230071535456862  0.1876997825736399  0.2556667111422503
  0.7548909673035504  0.0171448079220395  0.2585504268912899
  0.3731509459422978  0.5103242074406636  0.2538057914526889
  0.6365375261719917  0.5118873984437902  0.2587652460455389
  0.5027108327897835  0.3433726243944095  0.2679829712046243
  0.5009060510674286  0.6734491556494874  0.2612045873163349
  0.5121828940606701  0.7183093044871941  0.4736064983039820
  0.4542615748449732  0.7823613610534808  0.4304847966211867
  0.3881591502961234  -0.1988864635534924  0.3520169373829474
  0.2700211693840311  -0.2073826043977778  0.3835824194209862
  0.6587309455270124  0.7770980235340122  0.9034551386297207
  0.7659460988363087  0.7003541287141538  0.8891121663911692
  0.5403707017646220  0.4754676536905388  0.8902496064323744
  0.6010954681573331  0.4170739302539531  0.9231022275193020
  0.2066258796388344  0.1803926185095639  0.7213963093571517
  0.0823409777777665  0.1776314991126809  0.7510610104519829
  0.1744543113819349  0.5590569244382466  0.9049364648338381
  0.0700766521651303  0.4733770340855452  0.9033845579287667
  0.2615232725366887  0.7923044690397028  0.8122093169449219
  0.2375317154560989  0.8939332344538004  0.7964770112696972
  0.3314362063562070  0.1953703506120030  0.3555413963532786
  0.4080337330141106  0.2192293662354847  0.4001687866320905
  0.6433318144622290  0.2147250789702070  0.8776384407528541
  0.5731923146164053  0.3047980049408563  0.8713167398767582
  0.5113647020893245  0.0833613574526470  0.7722459527693397
  0.6020646177051069  0.1617441858059955  0.7537471627713779
  0.9455008420888306  0.2385268579275194  0.8906174676403791
  -0.0159579735713639  0.3387996765349429  0.8777622780888884
  0.2056945981894941  0.6125180081022252  0.5959018784115661
  0.1518400837921040  0.6588701654134562  0.6470013496171316
  0.4137849234048706  0.4159791103601844  0.4810970517579596
  0.5346872829720900  0.4364060118964113  0.5036729632876863
  0.6924007219852680  0.8411741625910979  0.3552940466017210
  0.5741627001870372  0.9173272026207063  0.3587612308263409
  0.4286675112998621  0.7169540510974458  0.7207992108007008
  0.3810845543940991  0.8122152727154263  0.7463050169690476
  0.5565940644636315  0.8566509052425352  0.4965544009210894
  0.5472456695592683  0.8725551832302770  0.5549761698601555
  0.5133359905160154  0.3299525887296259  0.4377837569288255
  0.6226961884403387  0.2854482032331968  0.4094720756950583
  0.6889537724576690  0.4441484586626831  0.8343735340690159
  0.7672254196254122  0.4989559679748757  0.7951437698527006
  0.0468380331221501  0.6663802224293672  0.7730472480606381
  0.1151592334462229  0.6131997955552903  0.8140434780289199
  -0.2383388848480667  0.0410415298283579  0.3498808580457959
  -0.2328765025329275  0.1410969301222808  0.3768315035544487
  0.5388953996942053  -0.0333028697349827  0.8732400893850870
  0.5636883126605652  0.9306489134273025  0.9287289808744168
  0.3016870399725371  0.3508909716933930  0.8155811077288817
  0.2372958858358243  0.4108304169539885  0.7703589118098253
  0.8860190606658918  0.9712117705920804  0.8701991206509837
  0.7435300825678358  0.9493053051244560  0.8762477288548987
  0.1168019999990320  0.7963081980043470  0.7581751071515617
  0.9711569118135503  0.7960350692743672  0.7598564424608558
  0.0996360686589753  0.6290588493824849  0.4812207640249549
  0.1012624213814590  0.6699265211055803  0.4256006268686404
  0.0756100821517666  0.8204346780934365  0.3844529164444256
  0.1089877079476411  0.7540888738500180  0.3383809608919726
  0.7835685161866420  0.2654795602333956  0.7254653448139426
  0.7246391501856884  0.3457499940036121  0.7613559836154412
  0.9126095849353431  0.4483283783468434  0.9101048761815258
  0.8754244115212085  0.4444823515084383  0.8490910135351692
  0.6152653623351066  0.8530750616242475  0.6418286033998459
  0.4931237082607064  0.8013509432873689  0.6423461688662394
  0.0582344931510163  0.0724346432655844  0.4813649081297556
  0.1341387534192784  0.1297007960927574  0.5192119652957606
  0.0204046494987709  0.7480271745553956  0.6822616756170691
  -0.0693342110953413  0.6943890524126247  0.6513214840828332
  0.3534566707933153  0.2737101743535064  0.6230563533146782
  0.3829851834900510  0.2362790533874309  0.5706543572360491
  0.5336679427780702  0.2881472787115871  0.6556874440734852
  0.6468951900627824  0.3108207268547447  0.6847134480987414
  0.8458572428628325  0.0491374214713210  0.4287672008964093
  0.8704482084264666  0.0005026877839295  0.4815079453955808
  0.8277788909551087  0.9013711061587441  0.7941862376381950
  0.7642447614869728  0.8127483523545008  0.7761286320631045
  0.7818724544419980  0.8603657124510117  0.7000378002365000
  0.8082021666526732  0.8896217367230927  0.6469455923551081
  0.2927831109498772  0.6075422731945835  0.5245284082517840
  0.2150821320216533  0.5189546875488797  0.5343588735870493
  0.6522401300415313  0.0303028859705397  0.6397995322090307
  0.5750397483538308  0.0834076651378317  0.6750729574648041
  0.6269675884425427  0.7523958349092836  0.8151011914167536
  0.5586172644988217  0.7598255276557424  0.7588509059212680
  0.7759245727010129  0.7138482011391765  0.4738384453111814
  0.9154796961285049  0.7018192417638492  0.4654261413707470
  0.6224442150172137  0.3725152653371176  0.5848235545388704
  0.6009337042109197  0.4789102862172822  0.5857980249763767
  0.7499755334465162  0.2824346759899497  0.3396151784664737
  0.8365982158800350  0.2843791372596643  0.3879138265762733
  0.3259903341726930  0.6456712193320487  0.8664857331310437
  0.2097402427523906  0.7014308167111087  0.8705615710575516
  0.9976175207099975  0.7368787143860573  0.8810771890645155
  1.0935887474374331  0.7860720096608970  0.9171254015546041
  0.9061155685218814  0.6105393802761970  0.9042054990679633
  0.9320796780107524  0.6247559996162408  0.8498435430185018
  0.8608229686754765  0.3312767216534740  0.5359748382609070
  0.7419511290693972  0.3755628105859808  0.5183013312167025
  0.9912211614281670  0.4053105643490001  0.6285826586285284
  0.0880173674854464  0.4865975364358217  0.6381287738652713
  0.5623568003692893  0.6273425454965262  0.8720341438843726
  0.4832949087359861  0.5994346232683522  0.9197638180775246
  0.3470644467008309  0.2849268051362542  0.7219946093137876
  0.4086312108849539  0.1843405012417322  0.7171120965860612
  0.3529259259299231  0.7810706297369034  0.9150811556052791
  0.4371668527568037  0.8431598450943829  0.8846795625455469
  0.3268370282923310  0.2091144175605444  0.9040600969247727
  0.4733155857205150  0.2031378611068770  0.9084365488993952
  0.7739629311362918  0.6026396559222549  0.6863672271916010
  0.8728535059616603  0.5504682799574099  0.6512799939088886
  0.0212660267644469  0.2801399303936669  0.5791004636610569
  0.9078447443082122  0.2749234601024233  0.6100897976545989
  0.7701101963946707  0.7117989296084218  0.5845484207641586
  0.6530372991724294  0.7567048171412893  0.5688078453400340
  0.0549507187154488  0.4420125791622966  0.7106913814508465
  0.0742688358876521  0.4918941124390940  0.7626903176680128
  0.6947479476021504  0.6426206476913284  0.7607852233394365
  0.6524511145842058  0.5458141971086039  0.7414839988225218
  0.2206691912092172  0.3564428874234329  0.4984677521647521
  0.2895534907681606  0.3672443792199015  0.5496416928585613
  -0.0910483143104054  0.8906551706787017  0.5747294295634486
  -0.0222070888505884  0.8386347965495770  0.6227905311713552
  0.6350001951441141  0.6210790319471727  0.6018635655367578
  0.5083186736140340  0.6055417375220733  0.6330455751466690
  0.1991394298469785  0.0486158619780030  0.7765645183451946
  0.1592326496918700  0.0243876774590141  0.8338539212865704
  0.7982740238856242  0.1174997324703523  0.8750342081724634
  0.7591236626168096  0.1655635760485035  0.9268839800880992
  0.4308915393793314  0.5632956288454004  0.7004088246343277
  0.3391485282247511  0.6111923053907158  0.6646412149670174
  1.0584036531147416  -0.0986709375797208  0.8796461939084667
  1.0527181958666088  -0.0187273272040854  0.9204778194862914
  0.8841532540136244  0.3489706299325038  0.4526054551815579
  0.0160716320451559  0.3200116963177139  0.4336346607887196
  -0.0340482702551377  0.9660423727269806  0.4060820898737531
  0.0215019479466423  0.9578538980567354  0.3470769592570344
  0.5069144036454433  0.4177526123405970  0.6936730333553818
  0.4313534449326668  0.4380775328139950  0.7428013207429113
  0.4596064873785724  0.5676345646466098  0.5038011124491784
  0.4985300102959988  0.6187211230480639  0.5518552131278740
  0.8400214715216104  -0.1561589226397143  0.5048756443163159
  0.7330218936365354  0.9100585177442292  0.5262465977839370
  0.5138819871247930  0.1223515304499838  0.5889477608244341
  0.5389324010358896  0.1470683957337753  0.5295009035403649
  0.4380508402305535  0.0883306574592631  0.8554051139276381
  0.3676577930462466  0.0107330290548564  0.8231584645517411
  1.0118189071697976  0.2508670952487990  0.8017506801106530
  1.0458786628686536  0.3159993756404694  0.7589595511569106
  0.6054331888590281  0.1974116149293262  0.4692026094610461
  0.7146185919231461  0.2023528736942597  0.5097486755876030
  0.0789423048359983  0.0741446498282865  0.6727217588845864
  0.0049448732851179  -0.0032676798406816  0.6386178240722272
  0.4444172820647591  0.9633771639498728  0.5061435762142944
  0.3737536646563794  0.0565252223940261  0.5263809396242800
  0.8420104232988039  0.7545235393215353  0.4023337563201090
  0.8948954919192066  0.7715741872844368  0.3494903041365923
  0.7571578270980455  0.1640062703358738  0.6535337791017424
  0.8972337137519980  0.1351626584161400  0.6484177879409574
  -0.3947108633429566  1.0535846768591177  0.3824109276453088
  0.4801214227693315  0.0434651200676114  0.3537839342771554
  0.2307047911256957  0.2578698582439008  0.4287328327127135
  0.1396880241407898  0.2173901671422101  0.4657360068369383
  0.2048481351190917  0.2144627614252324  0.5811576550321211
  0.0915046310005076  0.1370293557853631  0.5974069675501945
  0.1595494473960850  0.2857565254177142  0.8816183311120297
  0.2528997316231786  0.3586380222619694  0.9006905030963683
  0.5207822028983232  0.3579641227212201  0.3577609682713044
  0.7182834877268295  0.4426523953592606  0.3475599630473232
  0.7149695429806432  0.6148202077293132  0.3458247584012442
  0.3304641017515104  0.6084025212442910  0.3491928549538991
  0.5408458044433956  0.7030381181919326  0.3508297614557086
  0.4339932201847553  0.5845657561528095  0.3996024347654129
  0.5215040992102777  0.4252030469385361  0.3384113687899689
  0.6334197721588414  0.4796495421552307  0.3378893699594037
  0.4086598289407987  0.4758446732791882  0.3484284023540597
  0.6297661765756521  0.5804896922999565  0.3376158891231421
  0.4157626292842248  0.5803881990954566  0.3596136478502755
  0.5200070248648223  0.6338389597102039  0.3351719956998300
  0.5274872329124399  0.7728045468610586  0.4514678803423950
  0.3564177518722358  -0.1889776363960184  0.3855522782849274
  0.6819165802399787  0.7209150037870311  0.8817738603991385
  0.5891427042351549  0.4202572422878278  0.8863673079509566
  0.1481602324452181  0.1320098287675359  0.7353379875759160
  0.1436221149016490  0.5002104379115923  0.9219895792373726
  0.2481235447603272  0.8310383517855700  0.7837803328573473
  0.3234656611390139  0.2018947482340666  0.3906742656989247
  0.5614361834239193  0.2361440343707139  0.8690071769937640
  0.5386523739484914  0.1151388703761697  0.7425558616147161
  0.0076023533888118  0.2734490694696908  0.8763758692764108
  0.2144075384702601  0.6158682179090925  0.6346762533827576
  0.4994684997822977  0.4336132016494461  0.4708222778749487
  0.6157776230794426  0.8603173107121880  0.3403518435538841
  0.4453931531333067  0.7871129020586779  0.7241678608493460
  0.5686860159755698  0.9028459928552256  0.5234435581292360
  0.5351766011931821  0.2719542564558315  0.4185998850821114
  0.7632109983892842  0.4409487253643332  0.8135125108294928
  0.0351700581920241  0.6197698794008321  0.7997719073814398
  -0.2546945581446060  0.0734254107863941  0.3824178390550323
  0.5762017987937457  -0.0872670733026292  0.8935852761815136
  0.3070662043862440  0.3736206870771143  0.7802784767328615
  0.8077691487051157  0.9847073696344071  0.8584447485870184
  0.0445528885238170  0.7632954223532032  0.7449656721426539
  0.0583904744602675  0.6264794495627238  0.4476216669581346
  0.1216038010343887  0.7614939521891690  0.3750694689462064
  0.7121260406529407  0.2916825957547942  0.7400482610704652
  0.9400006917608529  0.4470349193351090  0.8767870998398869
  0.5425348528080123  0.8345344220009245  0.6212887617473066
  0.1346671987918006  0.1045358794332227  0.4843847645353924
  0.0061819414914977  0.7297111569798636  0.6466722429506803
  0.3206858604542326  0.2761409968622124  0.5893400725219927
  0.6011452175727922  0.3282890554101507  0.6530975769899147
  0.9088754863761005  0.0265902486204634  0.4512429415974812
  0.8335161160625887  0.8526578604835054  0.7671919697587409
  0.7410115234593232  0.8763190195696590  0.6695813770243536
  0.2120542598193213  0.5848226257707257  0.5359767668968380
  0.6149721533315323  0.0929784887631474  0.6428654294819770
  0.6363738364608791  0.7343422676775144  0.7791958245062939
  0.8530427012572732  0.7480864963692369  0.4638579276409209
  0.6082387327337466  0.4262750301434049  0.5632298520607717
  0.7542944220902522  0.2691834081778254  0.3766471267468530
  0.2399524847573964  0.6426431064037754  0.8602740940241509
  1.0598032643728015  0.7884480251885657  0.8818979689992223
  0.8959590402034070  0.6561563302160692  0.8783050595581118
  0.8020940606237522  0.3310074563028464  0.5077270863383723
  1.0186628217417399  0.4516386910792896  0.6530180379774199
  0.4846036816666029  0.5953905462155813  0.8797298187384486
  0.3522831165828815  0.2291959648402506  0.7016778013890753
  0.3632844103550016  0.8045176152710076  0.8799669992172947
  0.3898938811843691  0.1676895848520338  0.9181915563076739
  0.8177653061212502  0.6038467771328312  0.6531038252769816
  0.9490204268177371  0.3188210366981641  0.5896062131595902
  0.7041069442182161  0.7040942078802320  0.5603446434955369
  0.0943692520554870  0.4364465109698104  0.7445249271146255
  0.7260855564780517  0.5827913720863057  0.7444179873991228
  0.2635749539786301  0.4032051735873624  0.5197522913120191
  -0.0614564040568795  0.8974326172380309  0.6104515740452561
  0.5623492521061817  0.5811214312148920  0.6062121706327680
  0.2188625078155085  0.0088892776668402  0.8079123341599825
  0.7795257791156830  0.1766124069961669  0.8913921146282439
  0.4192445353006465  0.6201501025434951  0.6820316696280611
  1.0536975205098855  -0.0326132997221974  0.8840407107089139
  0.9424299168082305  0.3508046256174542  0.4239229957360170
  0.0323306784573713  0.9444235705899019  0.3828419666942012
  0.4933393293938061  0.4639724944567269  0.7206325393676611
  0.4484414693411216  0.6267100864606361  0.5211374058349687
  -0.1763312629183933  -0.0987042024276839  0.5230204857997328
  0.4759797787131856  0.1538254040144106  0.5574845823194378
  0.4510196491537822  0.0334402498317543  0.8314962581626250
  1.0017931796863069  0.2546691937101746  0.7657226098709630
  0.6568174542878195  0.1578108533083882  0.4919867555142680
  0.0241733136111330  0.0608866048457849  0.6443675030289666
  0.3684715064124768  -0.0013266181533602  0.5046537941280659
  0.8163990612542880  0.7630047371670172  0.3664360681836436
  0.8401476730144447  0.1918415512592469  0.6504946946244746
  -0.4704136835292908  0.0119390365756469  0.3784908488054344
  0.1591397320023981  0.2766336086681335  0.4484289916078386
  0.1236971254271355  0.1873179953170548  0.5748400348049078
  0.2476553736757559  0.3039911487320640  0.8812564642651921
  0.3108507027371080  0.4349327398919761  0.3606012754991637
  0.0717062087979796  0.4739134527339525  0.3731378112920290
  0.2724344373024290  -0.0061287409033122  0.4133177264253816
