1-pos-1
1.000
11.0985002518  0.0000000000000000  0.0000000000000000
0.0000000000000000  14.4173002243  0.0000000000000000
0.0000000000000000  0.0000000000000000  26.7964000702
Pt  H  C  O  K  
96  166  6  81  2  
Direct
  0.0000000000000000  0.0000000000000000  0.0018699899937576
  0.1249999521128992  0.1666699702868031  0.0018699899937576
  0.2499999943280624  0.0000000000000000  0.0018699899937576
  0.3750000365432257  0.1666699702868031  0.0018699899937576
  0.4999999886561249  0.0000000000000000  0.0018699899937576
  0.6250000308712881  0.1666699702868031  0.0018699899937576
  0.7499999829841874  0.0000000000000000  0.0018699899937576
  0.8750000251993506  0.1666699702868031  0.0018699899937576
  0.0000000000000000  0.3333300219343480  0.0018699899937576
  0.1249999521128992  0.4999999922211510  0.0018699899937576
  0.2499999943280624  0.3333300219343480  0.0018699899937576
  0.3750000365432257  0.4999999922211510  0.0018699899937576
  0.4999999886561249  0.3333300219343480  0.0018699899937576
  0.6250000308712881  0.4999999922211510  0.0018699899937576
  0.7499999829841874  0.3333300219343480  0.0018699899937576
  0.8750000251993506  0.4999999922211510  0.0018699899937576
  0.0000000000000000  0.6666699625079541  0.0018699899937576
  0.1249999521128992  0.8333300141554991  0.0018699899937576
  0.2499999943280624  0.6666699625079541  0.0018699899937576
  0.3750000365432257  0.8333300141554991  0.0018699899937576
  0.4999999886561249  0.6666699625079541  0.0018699899937576
  0.6250000308712881  0.8333300141554991  0.0018699899937576
  0.7499999829841874  0.6666699625079541  0.0018699899937576
  0.8750000251993506  0.8333300141554991  0.0018699899937576
  0.0000000000000000  0.2222199683821562  0.0864100026098289
  0.1249999521128992  0.0555599860957249  0.0864100026098289
  0.2499999943280624  0.2222199683821562  0.0864100026098289
  0.3750000365432257  0.0555599860957249  0.0864100026098289
  0.4999999886561249  0.2222199683821562  0.0864100026098289
  0.6250000308712881  0.0555599860957249  0.0864100026098289
  0.7499999829841874  0.2222199683821562  0.0864100026098289
  0.8750000251993506  0.0555599860957249  0.0864100026098289
  0.0000000000000000  0.5555599783168760  0.0864100026098289
  0.1249999521128992  0.3888900080300730  0.0864100026098289
  0.2499999943280624  0.5555599783168760  0.0864100026098289
  0.3750000365432257  0.3888900080300730  0.0864100026098289
  0.4999999886561249  0.5555599783168760  0.0864100026098289
  0.6250000308712881  0.3888900080300730  0.0864100026098289
  0.7499999829841874  0.5555599783168760  0.0864100026098289
  0.8750000251993506  0.3888900080300730  0.0864100026098289
  0.0000000000000000  0.8888900002512240  0.0864100026098289
  0.1249999521128992  0.7222199606033073  0.0864100026098289
  0.2499999943280624  0.8888900002512240  0.0864100026098289
  0.3750000365432257  0.7222199606033073  0.0864100026098289
  0.4999999886561249  0.8888900002512240  0.0864100026098289
  0.6250000308712881  0.7222199606033073  0.0864100026098289
  0.7499999829841874  0.8888900002512240  0.0864100026098289
  0.8750000251993506  0.7222199606033073  0.0864100026098289
  0.8702964833589535  0.2792793986015156  0.1720809533900045
  -0.0146667451824042  0.4460293044089828  0.1704333199771455
  0.1258667921527001  0.6206495869329415  0.1724781808710137
  0.1284056006818462  0.9510276136991327  0.1680491177883205
  -0.0018194145462785  0.1167851490296443  0.1734521191661440
  0.7410646076947274  0.7812686845637833  0.1733925493920020
  0.1240323657402937  0.2783847274495437  0.1716718051510143
  -0.0006389751082674  0.7831453208326458  0.1713108987988676
  0.2552777366960459  0.7807283257671433  0.1726201229934643
  0.8715337649545252  0.9477775513593735  0.1731336847616103
  0.3637766650449192  0.9501547255852548  0.1691777986716021
  0.8730686092049667  0.6167316413938181  0.1728221931254900
  0.2479533078492911  0.1155894877871223  0.1739535869030339
  0.5018729957857710  0.1152068443092052  0.1746157906413537
  0.6196302943169880  0.9393917299490497  0.1734326400533291
  0.2439772588337637  0.4448997896907865  0.1669854400881321
  0.7511887809659561  0.1121060559851437  0.1738321584241533
  0.7435648337406293  0.4519347441498087  0.1715027384074169
  0.6204081942227523  0.2853600963837702  0.1736353070864295
  0.3785815690744840  0.2810988204552540  0.1759669492225493
  0.3722402302806604  0.6156454923744886  0.1699647693335102
  0.4966325884532066  0.7780304632134843  0.1744122488788143
  0.4895618031381122  0.4452323832849685  0.1757175039618990
  0.6179168833633849  0.6119486364881025  0.1749428039445230
  -0.0012027688153483  0.0194186483422275  0.2629534336082708
  0.1075871178366053  0.5124750919833697  0.2576417626999727
  0.8698344249200965  0.8496273383108202  0.2583848766760229
  0.2309347171825596  0.3474545485746946  0.2588293406065807
  0.8752355691684176  0.1836182439093609  0.2571813525826555
  0.6132811944024683  0.8462744331518832  0.2612279407667373
  0.7467101690839643  0.3510898877564134  0.2559580421187826
  0.2367409586420351  0.6774846863032734  0.2617872593229887
  0.1165593390233237  0.8500621296380781  0.2609659974690700
  0.7483655852467941  0.6824249137863603  0.2547861730909380
  -0.0097467087125088  0.6857457874558496  0.2616832390966636
  -0.0099012531339248  0.3469505537707470  0.2566702541006161
  0.2378309729615859  0.0083448589145158  0.2588267680968473
  0.8678829067231683  0.5150588629751963  0.2588286217376300
  0.4963889524989198  0.0139431469049373  0.2616538296536811
  0.3696085939750918  0.8421929068546906  0.2599126047772886
  0.6255280094329907  0.1860052264487128  0.2565582678975388
  0.3712770184180246  0.1810845394063200  0.2647872197351860
  0.1220826263242415  0.1800569675260432  0.2597000230504493
  0.7446572955259984  0.0172975170399566  0.2574515406109366
  0.3555085714720855  0.5151885681121434  0.2543363826277256
  0.6201731902996251  0.5227956938703451  0.2634427919125821
  0.4810574856574965  0.3561056210195743  0.2708766675965599
  0.4850030050616068  0.6805603465871082  0.2665592181370461
  0.4651725466116640  0.7362121704804374  0.4713742335056025
  0.4251953481133317  0.8246144936526929  0.4433773959253820
  0.5265721703481666  -0.1408593604215245  0.3596142059065801
  0.3833598631139331  -0.1426757961059157  0.3459079559686100
  0.6617409911405702  0.6407676980693892  0.9061370760172701
  0.7734047006763703  0.5962305581395606  0.8756083061206840
  0.5468215229184431  0.3969606080793031  0.8830824139999259
  0.6316394373251512  0.3579661463733288  0.9224675125368624
  0.2404104541843175  0.1286582458533814  0.7180702836273329
  0.1016280341586756  0.1515418172965236  0.7309108323912935
  0.1811397718420512  0.5060992463971714  0.9040306071948863
  0.0570943804138969  0.4378578673876856  0.9086986068579868
  0.2834651737643347  0.8264844252959669  0.8132382875278273
  0.2486863045979897  0.9110775932973092  0.7824550344102810
  0.2726797876595242  0.3151488261333342  0.3865440511324136
  0.3608348684814867  0.2376352331225970  0.4063709933936184
  0.6812836756726377  0.1582443159194717  0.8597139855147735
  0.5771317638850494  0.2343471725243929  0.8549065740019389
  0.5987020173218751  0.1218355717070659  0.7840316287285225
  0.6942349830059585  0.1447445080863828  0.7450427465927512
  1.0414531467281252  0.1803027919345567  0.8915648538203694
  0.0326709028133051  0.2855118675174748  0.8778934592509396
  0.1950870770624025  0.5650603626516033  0.5821929185050998
  0.1176286913259535  0.6220038474877082  0.6192408257761973
  0.4378991684134783  0.3827300171983420  0.5025575437417138
  0.5697733072064767  0.3998012134536000  0.5130340648887540
  0.7337596056259252  0.8188941577148314  0.3538659924153471
  0.6723289941170031  0.9166227819634405  0.3544416925526635
  0.4532091331334811  0.6951585382891347  0.7171238067373942
  0.4139393511708854  0.7839310658975164  0.7514552805282738
  0.5332054710491383  0.8658099334340572  0.5147695342121770
  0.5037209732723394  0.9233178909504413  0.5649413249742919
  0.5384950673430592  0.2734147906732233  0.4536296276945858
  0.6143493470385037  0.2030543646213165  0.4177265504125776
  0.7153572420122580  0.3842214010056765  0.8373956532935328
  0.7652147605639431  0.4283159658624520  0.7906771349097066
  0.0586748710299290  0.6430567197507423  0.7761669851216236
  0.1366095915125201  0.5885939284247662  0.8125185397538922
  0.1298905597687577  0.2037198657866337  0.3890868747998276
  0.0333615194935865  0.1907763236673213  0.3478440523869381
  0.5209364548928413  -0.1443534863130762  0.9185115758393100
  0.5517927362669359  0.8052876307473650  0.8713315916366572
  0.3065238792465006  0.3048080994660265  0.8047563182370060
  0.2433450448372048  0.3540847952098368  0.7548523001264859
  0.8455732861273727  0.8913998926608314  0.8833702807536611
  0.7232163634539909  0.9430505939096607  0.8849389178239349
  0.1593207760582987  0.7891591264031135  0.7612711714319372
  1.0081506017883208  0.7837341981791611  0.7618992027031495
  0.0793990212017233  0.5933027133320525  0.4699928303356609
  0.0839891041628638  0.6656512351615370  0.4248007158080559
  0.1109909484932630  0.8047537632076555  0.3826331539922957
  0.1203751501544837  0.7379792225015266  0.3399546957776112
  0.8675541703698570  0.2369967697517305  0.7407630081950722
  0.7668460810927744  0.2866712635514025  0.7682436471566813
  0.8971684331479919  0.3709254089185514  0.9130995291046713
  0.9062658558726185  0.3804154702734083  0.8495297826224049
  0.2231779454434197  0.9441099697333157  0.5968333206289763
  0.2565820923181177  0.8791449908448723  0.5549910676784802
  0.1007058552094666  0.0397535564345111  0.4737947520129423
  0.2068614758401839  0.0193205252624560  0.5122745065881361
  0.0706699742852908  0.7316074150708147  0.6901091138382148
  -0.0425396675216031  0.6761977245065893  0.6619971111129780
  0.3110035435229362  0.2618536070530707  0.6529477406428874
  0.3850272573095586  0.2123687195151447  0.6140920660458395
  0.5934992178633957  0.2389141556055263  0.6429545935000442
  0.6730327445267698  0.2911063363115735  0.6845788928752579
  0.9661623234239156  0.1304802123444257  0.4329974297033773
  0.8694499983035986  0.0715704879031954  0.4622543148874381
  0.8276285482185098  0.8728125519915758  0.8010148227698034
  0.8010971529561414  0.7727298705982875  0.7755364937065179
  0.7376278502649284  0.8043413720312563  0.7115380515237132
  0.7911504767570671  0.8407702886195907  0.6604464152735688
  0.2884301103368291  0.5427259119576189  0.5005845571143498
  0.2098269261761121  0.4629103753871531  0.5194083934423105
  0.6739434419517089  -0.0671825312458614  0.6693696648919351
  0.6257521127571850  0.0265906909432215  0.6961026957327696
  0.7065238646391215  0.6706085613452242  0.8109206209256979
  0.6183919786898139  0.7111961938212213  0.7688446121018908
  0.8131028133676362  0.6801294015624961  0.5286966950368517
  0.8838707912908352  0.6598691564225859  0.4756879458922357
  0.6242547268561210  0.3793743851072202  0.6013728091453938
  0.5744499488177233  0.4729871726820540  0.5842773639400713
  0.7794745602854715  0.2408948415977532  0.3419946180603356
  0.8194288243787737  0.2897282298637025  0.3945235446778092
  0.3364134037744835  0.5520095216361083  0.8743035424133051
  0.2556802629742496  0.6428428412539345  0.8933128323950023
  0.9504093130861769  0.7367646562978982  0.8805254892406110
  0.9932921434778608  0.7940404100071953  0.9240093372854019
  0.9194939179503023  0.5626128440627537  0.9108869730357709
  0.9612088546080650  0.5766349192886870  0.8499512798074897
  0.8914376290071635  0.3203370712857743  0.5513157174731544
  0.7663187482849879  0.3728822341674596  0.5485104407940831
  1.0223804290998431  0.3702176881288571  0.6319953908037619
  0.0742596057216229  0.4757549597697324  0.6356831054348736
  0.5449533111574317  0.5451141466662203  0.8686430017659559
  0.4612482508408965  0.5109076004871526  0.9153257762103912
  0.3503529441709355  0.2348288751796719  0.7335695838434795
  0.4505097278156192  0.1486914515372856  0.7204291937434085
  0.1739619403970251  0.7860579202407669  0.8762093567639722
  0.3038611943314638  0.8048808046212007  0.8986220866764464
  0.3474632357713887  0.1765360797793593  0.8837182343509942
  0.4675338530499595  0.1159073667955843  0.8684050935811513
  0.8182851906884524  0.5433151756663457  0.7023402763466627
  0.9082593091318921  0.4961342374867063  0.6662597871478468
  0.0136671721997212  0.2321354071727736  0.5988591947634788
  0.8747206335942105  0.2351192911060145  0.6146494820480216
  0.7801600392986170  0.5993775989512325  0.6264795239928176
  0.7472760762117299  0.6997625681606997  0.6269823081229510
  0.1006429632795514  0.4089886807074722  0.7066905770361064
  0.0938297813014066  0.4691853938366903  0.7575145499217238
  0.6883137284842639  0.5577832427284733  0.7619011317159968
  0.6259727197531260  0.4671929662702877  0.7413219069598603
  0.2351137328286131  0.3085992526881724  0.5146970404445473
  0.3192330083900642  0.3210898768756661  0.5610143055603288
  -0.1149269523684636  0.8752498584396147  0.5910968457518547
  -0.0314527546767758  0.8029595049070342  0.6244589472713865
  0.5899637965533284  0.6061870618237980  0.5889441773169575
  0.4716376785909476  0.5975323315096098  0.6139281345106896
  0.1867151747880451  0.0608844089977754  0.7791721126196847
  0.2586313032010306  0.0523366242820011  0.8322454915800767
  0.8614037076450463  0.1509180679564882  0.8567560547557032
  0.8073320069931792  0.1167100421522711  0.9080588908530349
  0.4289837232222281  0.5447467690908353  0.6958891513169150
  0.3154128973806399  0.5954686603064637  0.6761387109550188
  1.0870774027187375  0.0343599808905313  0.8521803429295330
  0.9669465245684430  -0.0056864180550128  0.8865121183206270
  0.8745739707241765  0.3601870819508534  0.4739053340124735
  -0.0033083484314960  0.3234721788438328  0.4449870707506198
  -0.0141679064317269  0.9495573535623373  0.4117289391148299
  -0.0235853941488668  0.9481914463124621  0.3532395593289614
  0.5168273861929867  0.3816730006582887  0.6922360574631304
  0.4473053707049157  0.3890956740045529  0.7420712712232462
  0.4821856921913450  0.5345454877266511  0.4743469587967355
  0.4570064883385832  0.6015813502573507  0.5150296119122315
  0.8058908524103872  -0.1682746581923102  0.5177515684291114
  0.7328621037586449  0.9154284925588972  0.5365311120350313
  0.5701693159554323  0.0977433514025626  0.6249377662084971
  0.6139520344196853  0.1588650245861968  0.5781680728498082
  0.3187501068827970  0.0270942561660476  0.9051951390617882
  0.1861044385762853  -0.0104164671099017  0.9045395324782928
  1.0073432485336729  0.2216730877472707  0.8037368965412395
  1.0385747737970781  0.2998485051600494  0.7625316128200161
  0.7715322330160097  0.1389518863887893  0.5664846924375205
  0.7486900531765412  0.2251552634125443  0.5304650205237030
  0.1083522982580431  0.0438262714564979  0.6680886784605459
  0.0256073159843292  -0.0406887762183979  0.6332252742998159
  0.5636979214723488  0.9992506233253166  0.4989168847560133
  0.5838880236317516  0.0962510304433489  0.4733268510610550
  0.9016358335151684  0.8170470453092012  0.3828520627257312
  0.8558053950721450  0.7413547982780492  0.3381068661224977
  0.7686340177463579  0.0531132839010557  0.6396615494841008
  0.8953930677785309  0.0623697850436945  0.6202801786492339
  -0.3467999554602668  1.0121250778703603  0.4205469640540372
  0.7264679465130757  0.0715823736236378  0.3715825427824225
  0.1898331429021953  0.2188908806089057  0.4547618801285141
  0.1408079437081191  0.1885051379397181  0.5097823852052245
  0.1899516154768827  0.1891962938250069  0.5951186487111205
  0.0949185014551085  0.1025518256606733  0.5973027743491418
  0.2152897101941750  0.2617979201361369  0.8799678082961241
  0.3032860513882571  0.3258595821554449  0.9108466776417191
  0.5035893740051535  0.3476203447822239  0.3592885276596089
  0.6860262760065400  0.4428873409348748  0.3544179541027846
  0.6878019865938153  0.6072383788640335  0.3501099094849414
  0.2960922767620817  0.6156831057550498  0.3488019602004038
  0.5226195125020865  0.6993470860657993  0.3585118203427501
  0.3936707350068666  0.5994940752799400  0.4044247096665740
  0.4851017153625614  0.4179461637861927  0.3470421963412114
  0.6026850758430325  0.4718403889539790  0.3420808974371901
  0.3752041925957187  0.4737814204692160  0.3591895631683694
  0.5977376458971627  0.5737006498872149  0.3396321838626764
  0.3847954636399966  0.5805329536589000  0.3631236167585467
  0.4948572368513716  0.6319637547356669  0.3413539808868710
  0.4473321567024159  0.8011560491632066  0.4770690444690239
  0.4414248834030918  -0.1332190674064467  0.3735759676887555
  0.6842072028036784  0.6084623269143252  0.8752692237187122
  0.6124754951731017  0.3493976407808750  0.8875374554602435
  0.1570249167149728  0.0987504369646381  0.7167235212560645
  0.1335633400251161  0.4576149480802208  0.9253932395447670
  0.2852254962905095  0.8488354816578834  0.7780453064471801
  0.2764909367824104  0.2423394044754061  0.3937712410307824
  0.5987410491541203  0.1700346675564235  0.8480884545559922
  0.6127872757580000  0.1140395467265667  0.7462188712220834
  0.0727757887529897  0.2259047789897941  0.8676476638649644
  0.1609956598604580  0.5641498000014705  0.6158792363401531
  0.5106530806521200  0.3944731623202451  0.4838212497326412
  0.6522588291265691  0.8505450873619012  0.3438809484020077
  0.4830572216305078  0.7369916142754039  0.7434384876554543
  0.5657554821590999  0.9179365248421575  0.5378150902899412
  0.5350463920687767  0.2110394910672485  0.4369374214643382
  0.7837612931971802  0.3750659524302544  0.8130325170218804
  0.0585467441057737  0.5794298325091306  0.7938389187343265
  0.0440135219910254  0.1966692193883109  0.3849461436005128
  0.5138553945498231  -0.1369265200132744  0.8821578052190787
  0.3200530899230195  0.3237796763455167  0.7680070556226174
  0.7964762000042612  0.9373523479050770  0.8660210879112612
  0.0854660204694018  0.7495857773208514  0.7552994934833774
  0.0334011173392439  0.6313432645495138  0.4464503345098291
  0.1318217093938184  0.7374554222627503  0.3745788275740236
  0.7800664234337319  0.2495493442202134  0.7380155076089068
  0.9589713981106457  0.3817711522246697  0.8822919079862633
  0.2858988636041506  0.9364743363631752  0.5703545954330099
  0.1831046203806151  0.0172586455875154  0.4773981383986898
  0.0306536310115255  0.7145619595155648  0.6547925145442509
  0.3190961821103375  0.2565124874882432  0.6153719613008050
  0.6267930438774169  0.3050083859867395  0.6549722106932629
  0.9508974669787825  0.0675519890234710  0.4487508520136171
  0.8548838391170202  0.8259720024647111  0.7755532946834709
  0.7156492894354650  0.8162820037113709  0.6771548660478172
  0.2059618476135340  0.5311867388938855  0.5142435478012011
  0.6423506671312431  -0.0033559403111028  0.6635274024652706
  0.7014262779006949  0.6801374802525552  0.7734079704179203
  0.8111595623057190  0.6891006163522110  0.4927019731423743
  0.6274325986405794  0.4224346215621451  0.5731826678830954
  0.7548957813954356  0.2499648095227881  0.3775158281708882
  0.2527271903647604  0.5780369790353468  0.8796966631504715
  0.9847438480552776  0.7999604909496828  0.8853841549105862
  0.9184960154095331  0.6035181420675771  0.8798341057804648
  0.8246933225518962  0.3390799178170930  0.5280568090799664
  1.0381793494333864  0.4253466194013271  0.6548008651920773
  0.4797236533320344  0.5005280780334426  0.8765364913483580
  0.3715947086842774  0.1736137098179579  0.7131344948962531
  0.2585937399185562  0.7663023062305975  0.8725267792818668
  0.3759681065487435  0.1092036249925872  0.8768699163224810
  0.8630768879557814  0.5534459268838187  0.6707299762585555
  0.9468116639989929  0.2739870691908124  0.6058998205977606
  0.7370609235579637  0.6453354170719390  0.6074650795911373
  0.1097616726280138  0.4072057751356873  0.7440658571922563
  0.7052581312894537  0.4922337685344667  0.7520993005330056
  0.2976703153711415  0.3518716626882416  0.5287709824334715
  -0.0716734672030113  0.8674600847890176  0.6261875570017478
  0.5066033192176675  0.5884682328942711  0.5806632959963814
  0.1999112701232006  0.0260868877562866  0.8106000022165619
  0.8131801832987547  0.1688037646464536  0.8868937562896529
  0.4026713745287514  0.6001873544753856  0.6790962358200148
  1.0384244563792153  0.0392232016329157  0.8821576723019708
  0.9184703999125244  0.3624329598472867  0.4412087412983515
  0.0139584622593377  0.9138256502832643  0.3816415800297339
  0.4964270663783091  0.4264320606390439  0.7194744051810279
  0.4295143453753469  0.5878523618531012  0.4825423810819933
  -0.1855842262350670  -0.1132536103637446  0.5388422549922106
  0.5495079339490834  0.1534222222668180  0.6066440590905341
  0.2668835484343580  -0.0274602375646389  0.9183384275847742
  1.0179806194776302  0.2321283578710029  0.7678853276893333
  0.7142271587293418  0.1647999419055838  0.5387972575598377
  0.0879194225761940  0.0097178926720174  0.6363629333353481
  0.5689478842311053  0.0292990824445781  0.4642680897698340
  0.8298141527821594  0.7769599395814670  0.3696260105518747
  0.8198952952696638  0.0971164055694749  0.6192276403893888
  -0.3204512068306876  0.0158343833899792  0.3826144953143132
  0.1486257673357689  0.2358207266829025  0.4846145729344262
  0.1220922485792829  0.1576158328082768  0.5769232093676759
  0.2945344453156937  0.2948463792503421  0.8795448340768145
  0.2819948710270479  0.4361662479082706  0.3755563922294018
  0.0318313592904324  0.4914592863203014  0.3802483549621056
  0.3873215696961236  0.0413758226588476  0.3934656177687568
