1-pos-1
1.000
11.0985002518  0.0000000000000000  0.0000000000000000
0.0000000000000000  14.4173002243  0.0000000000000000
0.0000000000000000  0.0000000000000000  26.7964000702
Pt  H  C  O  K  
96  166  6  81  2  
Direct
  0.0000000000000000  0.0000000000000000  0.0018699899937576
  0.1249999521128992  0.1666699702868031  0.0018699899937576
  0.2499999943280624  0.0000000000000000  0.0018699899937576
  0.3750000365432257  0.1666699702868031  0.0018699899937576
  0.4999999886561249  0.0000000000000000  0.0018699899937576
  0.6250000308712881  0.1666699702868031  0.0018699899937576
  0.7499999829841874  0.0000000000000000  0.0018699899937576
  0.8750000251993506  0.1666699702868031  0.0018699899937576
  0.0000000000000000  0.3333300219343480  0.0018699899937576
  0.1249999521128992  0.4999999922211510  0.0018699899937576
  0.2499999943280624  0.3333300219343480  0.0018699899937576
  0.3750000365432257  0.4999999922211510  0.0018699899937576
  0.4999999886561249  0.3333300219343480  0.0018699899937576
  0.6250000308712881  0.4999999922211510  0.0018699899937576
  0.7499999829841874  0.3333300219343480  0.0018699899937576
  0.8750000251993506  0.4999999922211510  0.0018699899937576
  0.0000000000000000  0.6666699625079541  0.0018699899937576
  0.1249999521128992  0.8333300141554991  0.0018699899937576
  0.2499999943280624  0.6666699625079541  0.0018699899937576
  0.3750000365432257  0.8333300141554991  0.0018699899937576
  0.4999999886561249  0.6666699625079541  0.0018699899937576
  0.6250000308712881  0.8333300141554991  0.0018699899937576
  0.7499999829841874  0.6666699625079541  0.0018699899937576
  0.8750000251993506  0.8333300141554991  0.0018699899937576
  0.0000000000000000  0.2222199683821562  0.0864100026098289
  0.1249999521128992  0.0555599860957249  0.0864100026098289
  0.2499999943280624  0.2222199683821562  0.0864100026098289
  0.3750000365432257  0.0555599860957249  0.0864100026098289
  0.4999999886561249  0.2222199683821562  0.0864100026098289
  0.6250000308712881  0.0555599860957249  0.0864100026098289
  0.7499999829841874  0.2222199683821562  0.0864100026098289
  0.8750000251993506  0.0555599860957249  0.0864100026098289
  0.0000000000000000  0.5555599783168760  0.0864100026098289
  0.1249999521128992  0.3888900080300730  0.0864100026098289
  0.2499999943280624  0.5555599783168760  0.0864100026098289
  0.3750000365432257  0.3888900080300730  0.0864100026098289
  0.4999999886561249  0.5555599783168760  0.0864100026098289
  0.6250000308712881  0.3888900080300730  0.0864100026098289
  0.7499999829841874  0.5555599783168760  0.0864100026098289
  0.8750000251993506  0.3888900080300730  0.0864100026098289
  0.0000000000000000  0.8888900002512240  0.0864100026098289
  0.1249999521128992  0.7222199606033073  0.0864100026098289
  0.2499999943280624  0.8888900002512240  0.0864100026098289
  0.3750000365432257  0.7222199606033073  0.0864100026098289
  0.4999999886561249  0.8888900002512240  0.0864100026098289
  0.6250000308712881  0.7222199606033073  0.0864100026098289
  0.7499999829841874  0.8888900002512240  0.0864100026098289
  0.8750000251993506  0.7222199606033073  0.0864100026098289
  0.8802454282519440  0.2813807095424460  0.1707816628581126
  0.0081580198266262  0.4486675942210996  0.1680580013323554
  0.1353236915281790  0.6212933123084010  0.1711477860005607
  0.1342727765364792  0.9558590083372631  0.1708330410431073
  0.0074802765793996  0.1131093727001289  0.1695973004692522
  0.7569518226877083  0.7933364213101372  0.1714509238914236
  0.1304853007112494  0.2822827072117517  0.1689587530205213
  0.0060569368000057  0.7895203380043828  0.1711845954972624
  0.2559249590267239  0.7875367667008041  0.1752706501506172
  0.8844651033735808  0.9536688740327296  0.1736363112474336
  0.3785077471903184  0.9511242441762905  0.1719854497143878
  0.8852516020898001  0.6182513399683869  0.1671436644462135
  0.2559390161512416  0.1184144603177874  0.1751869517622470
  0.4936269791147205  0.1207818785839668  0.1732635940028099
  0.6265648947363121  0.9541906002909732  0.1717737331895883
  0.2537393314059049  0.4557659220222721  0.1703399755094764
  0.7510677346651479  0.1164347392773743  0.1698659395693232
  0.7542516206676074  0.4583477514231236  0.1702535638947097
  0.6318429142949005  0.2830157742448005  0.1747725113384996
  0.3744648755245974  0.2882682670084847  0.1767273160123652
  0.3783542496490877  0.6169145260156945  0.1730837326002568
  0.5104792155842081  0.7787057699178276  0.1768539229890901
  0.4943486346644154  0.4504039777749223  0.1740549076883964
  0.6286882076133089  0.6176135266082613  0.1710115613588015
  0.0040044370493024  0.0188279055563039  0.2598391181748031
  0.1333986615317581  0.5179068558075016  0.2593093237000674
  0.8948242403102451  0.8484160398965328  0.2604549256361326
  0.2539119814988479  0.3476863987025269  0.2571386871015832
  0.8786781164345497  0.1809608470941495  0.2626819096244171
  0.6391572950272734  0.8475959560031510  0.2598647349963986
  0.7544774142291828  0.3487881581479761  0.2585987541179549
  0.2580647984519785  0.6816634530115131  0.2577209166084993
  0.1339242914247748  0.8522935570481682  0.2558194348659326
  0.7605318037030312  0.6875440936155771  0.2554844394047332
  0.0074149474913652  0.6837065428301154  0.2558850033451088
  0.0004448460141450  0.3584279376377417  0.2579143285252651
  0.2613538734055137  0.0150164831301147  0.2605115091434704
  0.8839786176433018  0.5185579471528964  0.2518993282648664
  0.5133657941464606  0.0167578877557660  0.2583657181958295
  0.3901984567327141  0.8568996389682819  0.2584391358375592
  0.6196607014343771  0.1833239356731455  0.2609619812654114
  0.3788571419474498  0.1857486473775657  0.2693486951788942
  0.1324432953057420  0.1812141553448749  0.2572253761342113
  0.7625385242323557  0.0154329974154924  0.2567374915241237
  0.3748763388841860  0.5128382071795961  0.2588519095822049
  0.6447691374552535  0.5191726930943772  0.2607085242681204
  0.5008130531418906  0.3543664138857909  0.2668183276174916
  0.4974668326925126  0.6762687002776477  0.2620771812706998
  0.5467194592905383  0.7168162206458991  0.4731122107069428
  0.5005975694688050  0.7864341333330668  0.4372100759694530
  0.4353885291227795  -0.1677563798264754  0.3568231114982243
  0.3076805128554351  -0.2101705922231441  0.3727637279609196
  0.6150857543831515  0.7025167560240470  0.9213200298966776
  0.7044324599021404  0.6765727477991533  0.8832481778782216
  0.5316234690847601  0.4560058612998193  0.8816790108001872
  0.6098000942787166  0.4072108028453744  0.9239032983849319
  0.1955588878639701  0.1840081316284586  0.7142799495140223
  0.0529287931137118  0.2026677968580534  0.7216387206841577
  0.1536857820427914  0.5476789729668944  0.9049801507355613
  0.0571854416002798  0.4718725493302482  0.9008745156535434
  0.2464528030943987  0.8499236391461736  0.8148078033168817
  0.1905672593337085  0.9202184338187460  0.7783959087771718
  0.3172386233292169  0.2749172938994160  0.3760502257953037
  0.3946393450042630  0.2422705128462836  0.4141615948159400
  0.6635049075847604  0.2108103176888353  0.8758520271982501
  0.5705700814912333  0.2900471022828432  0.8664082607394329
  0.5671097684733757  0.2086053936250068  0.7928968136443195
  0.6142098919621524  0.2545175193629681  0.7462339134254743
  1.0456229771601688  0.1919888255593562  0.8693693003153511
  -0.0123526994269127  0.2965936628615650  0.8715725553848878
  0.1547657332279126  0.6134966165504435  0.5797279302817953
  0.0978713315363336  0.6440333140909412  0.6384595120680443
  0.4186350743422704  0.4241074653903779  0.4969906071342143
  0.5551032119047629  0.4344979422043040  0.5146766230825670
  0.6969175281358891  0.8311491102407008  0.3586661464234612
  0.6183876907591097  0.9323084028135106  0.3575286529385099
  0.3952462635020039  0.7465891225777406  0.6970194651770101
  0.3561774488907977  0.8325498564127172  0.7314097304173335
  0.6224931555305873  0.8513776364323414  0.5146972548949953
  0.6081665557565131  0.8959078960934335  0.5705313143574772
  0.5378597131654660  0.3249995607362404  0.4494405811955811
  0.5882545258618290  0.2547721144010747  0.4128033247496383
  0.6784299854639212  0.4632261554173370  0.8339532717401025
  0.7244426297684683  0.5179674683553714  0.7896072523499265
  -0.0019298517650190  0.6685594993405217  0.7886791180619309
  0.0623474823535526  0.6073385997914972  0.8237441480748593
  0.0932153629885454  0.1762861308885173  0.3954799355076543
  0.0520735912770077  0.2011485071395053  0.3400776078475673
  0.3790595324731098  -0.0942253659537674  0.8946924704173914
  0.4862296370110715  0.8436059545184733  0.9174535561006240
  0.3036496348732731  0.3924556119850600  0.7999090867633853
  0.2217802909362276  0.4401757650647885  0.7586836422743505
  0.6882076604053980  0.9449798773515855  0.9176979627404279
  0.5842908659706771  0.9291928890487148  0.8751704062957351
  0.0918245320879923  0.8035411679624976  0.7815349053057966
  0.9587581706703331  0.8305175983377542  0.7788843691362392
  0.1266052726603408  0.5912595654304537  0.4724070857852929
  0.1069823821563127  0.6565546165325546  0.4234842717481230
  0.1225551984448890  0.8078777692628312  0.3744770115691553
  0.1302684091722678  0.7344902226390408  0.3371280925696589
  0.8053192467288924  0.3101066983098824  0.7413627024770617
  0.7119204467485184  0.3838394173253535  0.7619212858821753
  0.8590324870924556  0.4371530614155611  0.9182903314637794
  0.8529959897567788  0.4356161268470034  0.8591794182757985
  0.6041354638265252  0.9068927322857928  0.6495206401943414
  0.4870894343065171  0.8562156762882664  0.6583095271076216
  0.0889637803215678  0.0835078510309967  0.4635399200922324
  0.1883756072142201  0.1357688224249376  0.4934574500701321
  0.0084968864856047  0.7233785534840914  0.7089180257733857
  -0.0719648930737703  0.6592268259199311  0.6693433522417972
  0.3463575766082950  0.2707362379414913  0.6346500087081686
  0.4568322496346028  0.2339709480152536  0.5978804923060108
  0.6086042876382790  0.3305635317954541  0.6374050991496680
  0.6893881002128284  0.3625357003033329  0.6762804736279915
  0.8755196738698153  0.0218280634656951  0.4626552756572375
  0.9739641386994484  -0.0412678848358301  0.4866219928101960
  0.7530395383686663  0.9069000500428179  0.8086917792139927
  0.7073765808877395  0.8203633460212731  0.7822743458294524
  0.7742709915789129  0.9185750925737556  0.7236937732679277
  0.8241808755031089  0.9208601821805097  0.6653825775473624
  0.3021565243696884  0.6072823582839066  0.5199486704333269
  0.2294789871709862  0.5224761112280808  0.5326209927792541
  0.7016049891008572  0.0492088000293027  0.6775574229387332
  0.6467083189673239  0.1379456832804189  0.6977363671806253
  0.5758697164027575  0.7435995037774501  0.8226399357432593
  0.5180604009507943  0.7610499955883894  0.7650393186881163
  0.8248959756715947  0.6531826234378932  0.4981871571266014
  0.9526485270642970  0.6640838348335677  0.4755451496886421
  0.6611805475618090  0.4395960620572925  0.5917280498522447
  0.6074181787675904  0.5335032262098469  0.5701159076733391
  0.6812138035473589  0.2018402586633579  0.3399537676529402
  0.7626409909507589  0.2470059709929432  0.3822774932477542
  0.2858246832481276  0.6132362507994638  0.8730751455273890
  0.1853410787792149  0.6954397457577262  0.8804131931563566
  0.8780404804081098  0.7925735447084928  0.8708054202120232
  0.9076289759299926  0.8566770364802938  0.9143856135230901
  0.8759119755593426  0.6225491891520754  0.9106193162504860
  0.8892337491094239  0.6196562562068557  0.8529859112239102
  0.9099922206121510  0.3703972663203161  0.5349753656888511
  0.7965509607540179  0.4390969071886250  0.5268801066454082
  0.9747007683714327  0.4128785140970466  0.6132960168360907
  0.0320037870830695  0.5130094665112037  0.6246912202664042
  0.4999216986367271  0.6048000191882915  0.8840742200794879
  0.4243756479922703  0.5442223488330636  0.9214421992101460
  0.3006411172950008  0.2903347971102707  0.7293677685621346
  0.4150559540468451  0.2204562165767287  0.7227901079906306
  0.0695883636056809  0.8165760056974609  0.8816506101083775
  0.1811995872932327  0.8230668407251085  0.9148858349806323
  0.3690825635865216  0.2379364961144489  0.9163622424046278
  0.4769411085737918  0.1788404347822471  0.9050101014154248
  0.7616709129982667  0.5907807419272596  0.6942047426134417
  0.8392795327268923  0.5457923331330262  0.6515454267723094
  0.0667793547763174  0.2795162509835062  0.5739629443137063
  0.9367905575002150  0.2505768301967509  0.5898811094471774
  0.7666137974831415  0.6971340656178916  0.6196068718560551
  0.7405637626639675  0.7908886437476973  0.5981927618861813
  0.0226334275173134  0.4716463183335112  0.6995965399676197
  0.0140987980582892  0.5214436770851812  0.7550574308823188
  0.6422382588353747  0.6477430760136245  0.7575076186772464
  0.5845579681225664  0.5544975963894897  0.7352132433904565
  0.2363038646572678  0.3686219183354792  0.5126078775251499
  0.3226767337252781  0.3885500869613739  0.5583931497365616
  -0.0722160991049228  0.8639787633890925  0.5955004893305020
  -0.0437682820812854  0.8123390171455375  0.6467876546997174
  0.5832444840148703  0.6871236774623654  0.5992734054399474
  0.4619586545279822  0.6485549187732190  0.6208174422018858
  0.1207560671976954  0.0679005082345457  0.7600832259311756
  0.0713464019223297  0.0260138953732726  0.8085663246980431
  0.7316353387281364  0.0747194612126005  0.8851444783091331
  0.7773888664732606  0.1308261198876143  0.9264346990963070
  0.3915240735697831  0.5722161249437775  0.6819876925267746
  0.2897937169464290  0.6281749431308469  0.6545850406789021
  0.9198677502795243  0.0678449575150948  0.8825353006204573
  1.0385436581875664  0.0474350584617311  0.9115898765881384
  0.8529725765843585  0.3660031525462807  0.4510835808404835
  -0.0789313987047866  0.2838443274561615  0.4148093444634497
  0.0212495668918646  0.9491042152286437  0.3955953824927678
  0.1126523486267638  0.9421960395750542  0.3463001824383024
  0.5254848635385783  0.4370157280404356  0.6831951388447589
  0.4230936323165314  0.4398071544915660  0.7274365534338177
  0.4912006724706645  0.5492973490592972  0.4917613685598943
  0.4934871988052370  0.6359977362436592  0.5292776649603942
  0.9107880536075657  -0.1866292322375940  0.5097477615058630
  0.8183484367112550  0.8858525063987905  0.5329223766173385
  0.6174521193607745  0.1631108389375430  0.6338167112002383
  0.6320579903723744  0.2010436491441469  0.5793622425747029
  0.3098569638399798  0.0654529289685939  0.9035604448795381
  0.2042605339070323  0.0123637996175983  0.8797166904376664
  0.9836320210498226  0.2625929020066456  0.7880085108888434
  0.9715848388300165  0.3548913459869650  0.7509565672061489
  0.7823325659150929  0.1791717891430273  0.5538373629189226
  0.7541326169671042  0.2601969074610249  0.5128223335224087
  0.0832087830651014  0.0823152665295642  0.6591429048464782
  0.0555106968619549  -0.0111324734938571  0.6331923857663676
  0.6749091104075222  1.0064393769884548  0.4989247294590125
  0.6924333886872345  0.1034960691173681  0.4827275173796677
  0.8238783228406935  0.7720640694808342  0.4250800135376163
  0.8719010848813178  0.7801456326297804  0.3660321230502808
  0.8218895012973125  0.1283688002820832  0.6271626266130220
  0.9536085365302852  0.1088767419058317  0.6036626150051083
  -0.3980738892161098  1.0194103762803197  0.4210115452652218
  0.6153218715017302  0.0767410195936125  0.3765755168292904
  0.2334523551035453  0.2855312890316031  0.4433152452299290
  0.0982066128460220  0.2774140298652337  0.4668673857990592
  0.2681827624067739  0.2139653623429886  0.5779681030446865
  0.1782556851390024  0.1291644088718708  0.5776749604330140
  0.2112410251934504  0.3066801010946331  0.8698144686091797
  0.2284826981274998  0.3815390578139312  0.9012311871868449
  0.5137707109098107  0.3582945994072761  0.3609211326358517
  0.7091673252630235  0.4424309555577491  0.3519522954946541
  0.7099301737928172  0.6028234652318185  0.3480247871941253
  0.3305977297252324  0.6106489198831575  0.3504645580897952
  0.5387416177271578  0.7048676472015001  0.3519296268489253
  0.4302562517332500  0.5944604073621643  0.4052643335466870
  0.5099274915979869  0.4226940128102858  0.3384658242987751
  0.6216596630415008  0.4774988346220868  0.3420725602725181
  0.4052732320540793  0.4775762400712789  0.3493086751085419
  0.6252803348159131  0.5774456779410108  0.3395949438902403
  0.4175483686048854  0.5822533845241874  0.3645328669974248
  0.5216684600841448  0.6342367485271651  0.3394753133879488
  0.5742575032483633  0.7773040682617895  0.4608126935726795
  0.3752698603421227  -0.1744105021938729  0.3840023765260644
  0.6130113004139077  0.6832430927877323  0.8869216957739882
  0.5919650754825601  0.4052342605554407  0.8878527225923161
  0.1150867331910763  0.1544448730107590  0.7138689104426864
  0.1283587140315607  0.4874158633775132  0.9205639368227229
  0.2388491390330033  0.8607099148760702  0.7795554035047697
  0.3118293941957344  0.2260682024923462  0.4008334955502041
  0.5779058962457354  0.2254156607921918  0.8616854450750728
  0.5492594253184193  0.2121270896644929  0.7582775373695316
  0.0501909079841356  0.2582661703627516  0.8538817282716149
  0.1353048730936823  0.5973408710449559  0.6161283144917896
  0.5018350975751608  0.4358256916998535  0.4856755479991930
  0.6281514820139169  0.8644792521205291  0.3413727894096084
  0.4245204467635943  0.8033398343039873  0.7120333087845853
  0.6510825757136016  0.9014472009880763  0.5375426164956676
  0.5353669329904587  0.2612999436503661  0.4414539102532405
  0.7361410134378241  0.4595741382795337  0.8063055112140941
  -0.0094768717857119  0.6059755228981633  0.8023705316749111
  0.0500094729024296  0.2194966581653222  0.3745532554487305
  0.4497432577784968  -0.1347345346548275  0.8863775365823878
  0.2944198221439914  0.4061042803375673  0.7639923877934250
  0.6738605582305637  0.9448410964516339  0.8812553413792851
  0.0110339876399191  0.7769845914437764  0.7723863864354344
  0.0802075076094742  0.5999477211427747  0.4395814384410362
  0.1559456795001917  0.7470196380975282  0.3708862131840018
  0.7268730842522284  0.3418451183317362  0.7319176877013097
  0.9064784436138872  0.4541938213343917  0.8862181306028976
  0.5304405040442475  0.8864080787996829  0.6326124818367619
  0.1711621579043446  0.1086184372619620  0.4600126372873637
  0.0022555492122406  0.7073702447432496  0.6743091797391998
  0.3703255092897271  0.2690280672287463  0.5991900866436110
  0.6344072541024690  0.3903184761329490  0.6494949333494595
  0.9590006201309765  0.0040960031338230  0.4576834653935088
  0.7708686123345753  0.8735892079761080  0.7790675137186137
  0.7493316606765137  0.9349317190385729  0.6871156888300100
  0.2197027777788747  0.5849429708265272  0.5226856077871457
  0.7020446885998241  0.1146890437374021  0.6741542835520580
  0.5885422220484812  0.7449146112875263  0.7860812154064388
  0.8980268204511281  0.6953322487176501  0.4979869011337836
  0.6493007975677847  0.4740659181030439  0.5586074727346120
  0.6859255988362332  0.2106622888577229  0.3762517768240183
  0.1998570337591565  0.6301091743507115  0.8684901531784863
  0.9221338308606298  0.8511817621316010  0.8785909731539652
  0.8498521169533934  0.6572415657634035  0.8798896367695566
  0.8588749120363379  0.4015151514389068  0.5099020186108909
  0.9698018803445408  0.4650442200682917  0.6379705506342070
  0.4454177904350858  0.5475596554405033  0.8845266654926119
  0.3276315605083906  0.2327993247614402  0.7116648114090374
  0.1572530466462750  0.8077019166718082  0.8802590493202749
  0.3917399546208838  0.1718016763377944  0.9184683645386515
  0.8089224213644487  0.6078319012202912  0.6631606679272634
  0.9805033149442957  0.3015839470049677  0.5728833009875801
  0.7254453546635004  0.7251394592504297  0.5906328165103363
  0.0397611985663045  0.4643506932189897  0.7364044635176518
  0.6627226420080586  0.5880081548493664  0.7384692381125622
  0.2944369359968265  0.4139908269954747  0.5284891330962391
  -0.0607096900584133  0.8752253819430091  0.6322600172603539
  0.5143590769279077  0.6460996148502047  0.5914195911608404
  0.0966727146423220  0.0080623593316094  0.7755131306913980
  0.7769543653883759  0.1323369989884938  0.8890309178356059
  0.3716729501475650  0.6330217513621289  0.6684130077203433
  1.0144538850079301  0.0694549816138422  0.8779993891815483
  0.8568625149922979  0.3331961085129749  0.4172374412909918
  0.1068221944228654  0.9360045540117898  0.3846121780724361
  0.4809497233497192  0.4739454271669481  0.7076088172189496
  0.4641648749581731  0.6107232587179828  0.4961602931576461
  -0.0912699748631095  -0.1191737190437415  0.5240319670594914
  0.5814045904493692  0.2081740604278581  0.6101041212204136
  0.2764044133983303  0.0023558295430897  0.9007441730929439
  0.9550420381241082  0.2825522020020074  0.7536720966918026
  0.7185060386971374  0.2015192831320167  0.5267717151080229
  0.0748421245893367  0.0523891754176654  0.6252817071324962
  0.7011318120606397  0.0363299744023629  0.4700681842412120
  0.8071547035147493  0.7644092232070506  0.3886773908776868
  0.8781450432295426  0.1461356375203247  0.6022933080532836
  -0.4290391538737613  0.0230903663737892  0.3850788960893053
  0.1611906868056210  0.3211129488027832  0.4605641149620247
  0.1921274453054295  0.1865628849475245  0.5597364311887605
  0.2773666954236217  0.3304043923890253  0.8900498478907054
  0.3067631000546966  0.4382577042649315  0.3576985118220942
  0.0516892718281427  0.4345646755722044  0.3811702081190702
  0.3347265641767672  0.0339689208368260  0.3787943522789866
