1-pos-1
1.000
11.0985002518  0.0000000000000000  0.0000000000000000
0.0000000000000000  14.4173002243  0.0000000000000000
0.0000000000000000  0.0000000000000000  26.7964000702
Pt  H  C  O  K  
96  166  6  81  2  
Direct
  0.0000000000000000  0.0000000000000000  0.0018699899937576
  0.1249999521128992  0.1666699702868031  0.0018699899937576
  0.2499999943280624  0.0000000000000000  0.0018699899937576
  0.3750000365432257  0.1666699702868031  0.0018699899937576
  0.4999999886561249  0.0000000000000000  0.0018699899937576
  0.6250000308712881  0.1666699702868031  0.0018699899937576
  0.7499999829841874  0.0000000000000000  0.0018699899937576
  0.8750000251993506  0.1666699702868031  0.0018699899937576
  0.0000000000000000  0.3333300219343480  0.0018699899937576
  0.1249999521128992  0.4999999922211510  0.0018699899937576
  0.2499999943280624  0.3333300219343480  0.0018699899937576
  0.3750000365432257  0.4999999922211510  0.0018699899937576
  0.4999999886561249  0.3333300219343480  0.0018699899937576
  0.6250000308712881  0.4999999922211510  0.0018699899937576
  0.7499999829841874  0.3333300219343480  0.0018699899937576
  0.8750000251993506  0.4999999922211510  0.0018699899937576
  0.0000000000000000  0.6666699625079541  0.0018699899937576
  0.1249999521128992  0.8333300141554991  0.0018699899937576
  0.2499999943280624  0.6666699625079541  0.0018699899937576
  0.3750000365432257  0.8333300141554991  0.0018699899937576
  0.4999999886561249  0.6666699625079541  0.0018699899937576
  0.6250000308712881  0.8333300141554991  0.0018699899937576
  0.7499999829841874  0.6666699625079541  0.0018699899937576
  0.8750000251993506  0.8333300141554991  0.0018699899937576
  0.0000000000000000  0.2222199683821562  0.0864100026098289
  0.1249999521128992  0.0555599860957249  0.0864100026098289
  0.2499999943280624  0.2222199683821562  0.0864100026098289
  0.3750000365432257  0.0555599860957249  0.0864100026098289
  0.4999999886561249  0.2222199683821562  0.0864100026098289
  0.6250000308712881  0.0555599860957249  0.0864100026098289
  0.7499999829841874  0.2222199683821562  0.0864100026098289
  0.8750000251993506  0.0555599860957249  0.0864100026098289
  0.0000000000000000  0.5555599783168760  0.0864100026098289
  0.1249999521128992  0.3888900080300730  0.0864100026098289
  0.2499999943280624  0.5555599783168760  0.0864100026098289
  0.3750000365432257  0.3888900080300730  0.0864100026098289
  0.4999999886561249  0.5555599783168760  0.0864100026098289
  0.6250000308712881  0.3888900080300730  0.0864100026098289
  0.7499999829841874  0.5555599783168760  0.0864100026098289
  0.8750000251993506  0.3888900080300730  0.0864100026098289
  0.0000000000000000  0.8888900002512240  0.0864100026098289
  0.1249999521128992  0.7222199606033073  0.0864100026098289
  0.2499999943280624  0.8888900002512240  0.0864100026098289
  0.3750000365432257  0.7222199606033073  0.0864100026098289
  0.4999999886561249  0.8888900002512240  0.0864100026098289
  0.6250000308712881  0.7222199606033073  0.0864100026098289
  0.7499999829841874  0.8888900002512240  0.0864100026098289
  0.8750000251993506  0.7222199606033073  0.0864100026098289
  0.8786014977310576  0.2890183957934686  0.1716398030202149
  0.0097235494212380  0.4496158300896263  0.1719167448810827
  0.1315316758463147  0.6090726687580199  0.1724564692195054
  0.1261530041027773  0.9467078962464136  0.1730292696501524
  0.0032226147216782  0.1171846491656193  0.1730546926024227
  0.7559431306531080  0.7845554089131961  0.1711405561264175
  0.1255484725852047  0.2818907424532961  0.1738657060125475
  0.0057606866467954  0.7806909679198614  0.1712322137443649
  0.2493399809087888  0.7819577735988619  0.1690828339153911
  0.8760166549731050  0.9509334807561486  0.1719298145919052
  0.3776962938681869  0.9505585076602225  0.1735281105827024
  0.8820953941242852  0.6164745239486425  0.1704055240120886
  0.2532612555416332  0.1193718148283591  0.1721877666034400
  0.5035564221205111  0.1208468702734941  0.1726933382908498
  0.6263894944880051  0.9495551836484483  0.1715867753785810
  0.2613259350631283  0.4450491287672089  0.1718132929997577
  0.7556920649832624  0.1209077675001829  0.1708600151813537
  0.7552158067699833  0.4488552549660316  0.1730156673640601
  0.6399118058179220  0.2805668641332880  0.1756762728003585
  0.3819794149675707  0.2808118785912685  0.1733693430583762
  0.3780045413000366  0.6169788086404288  0.1692525879938525
  0.5025569937159209  0.7811100138858887  0.1742149824293602
  0.5072560896222837  0.4422814571033598  0.1733385475933944
  0.6369510198689672  0.6151549661462785  0.1717926102401874
  0.0039451321175488  0.0182172822798904  0.2601564848538242
  0.1407817627112810  0.5137073251354586  0.2577028783534078
  0.8987681305302684  0.8522685348876813  0.2585112633321084
  0.2520161099195696  0.3450679338503924  0.2606412620091872
  0.8754545692535513  0.1850879616145027  0.2546554487290527
  0.6335537052548701  0.8592226943169906  0.2614313574303831
  0.7583841121267630  0.3465334371534580  0.2614409240027335
  0.2517677367396390  0.6762545842922113  0.2573805637821455
  0.1379908008788500  0.8516723473583745  0.2595610366757779
  0.7699737449673930  0.6897947788475672  0.2567734660915086
  0.0046679422286446  0.6844564541818799  0.2572139480394225
  0.0001529659288627  0.3518788421600144  0.2567042366354944
  0.2502672842350496  0.0185359696713242  0.2591991387426751
  0.8998515090793701  0.5190117180807552  0.2592974160595200
  0.4986141904265393  0.0240130383784672  0.2588799637573191
  0.3824437409380246  0.8489015757660155  0.2589748733941859
  0.6223716790815705  0.1861477410366061  0.2643593584004558
  0.3740038049309223  0.1874423584621724  0.2597139780854174
  0.1271833618214380  0.1814149768339856  0.2605925157225003
  0.7524234225291510  0.0223124107839420  0.2577378425089491
  0.3920300304804107  0.5180222805176837  0.2546650850346506
  0.6427562691673624  0.5150040187680495  0.2606246498598375
  0.5051157003389527  0.3529752811017073  0.2685566007876926
  0.5086624434219756  0.6798736129444729  0.2602369869994239
  0.5181285011429692  0.7154037816813781  0.4648635834166744
  0.5001093270957760  0.7833116436574947  0.4221968869386103
  0.3549104349356717  -0.1883807768476894  0.3302873678073855
  0.2493943698790375  -0.1904218778126538  0.3677305717329684
  0.5005291201483775  0.7938973876751414  0.8839939505509554
  0.5838041545252163  0.7187381922334295  0.9103462405246113
  0.5128050424810280  0.4749082650550434  0.8753046463350903
  0.5875865855787445  0.4066623699018284  0.9131279855353113
  0.1925887645633328  0.1891170920339478  0.7047767559494810
  0.0642682639381224  0.1890745125849214  0.7340102472224806
  0.1431854073024205  0.5530389781688220  0.8976399160852084
  0.0508179943779816  0.4645616142619513  0.9036017534395351
  0.1683990258230504  0.8426264689365474  0.8164540162217658
  0.1918264603683468  0.9181125047177603  0.7762996569951098
  0.3009932057764482  0.2483708214360820  0.3477287860828111
  0.3857610502919644  0.2504506918163533  0.3980223591026716
  0.6119222321410984  0.2095959845038683  0.8446196673996395
  0.5258154724602121  0.2913035896777209  0.8387195217761300
  0.5682726258421366  0.1854121533374525  0.7619252807620741
  0.6402516373460050  0.2466050877894251  0.7237494649875650
  0.9738299489020694  0.1644028947878195  0.8858637659466332
  -0.0720739755058587  0.2733412604086449  0.8863405562978196
  0.2524515311197643  0.6306298577438024  0.5904837770837887
  0.1692493459641406  0.6806159739575258  0.6316136249518861
  0.4558773374068645  0.4088557637486667  0.4987162942816989
  0.5791284458868727  0.4314082709408228  0.5248255701160321
  0.6801921310922756  0.8045045056112892  0.3508432278839995
  0.6537653125270887  0.9103421662246227  0.3540289887166621
  0.3870015448261486  0.6879842192980058  0.7229747027827310
  0.3105447155746128  0.7722495404954068  0.7479829172199101
  0.6495791257769947  0.8704740859490101  0.4962779848883165
  0.6383919187145033  0.9079208754727548  0.5512393683854173
  0.5455465908664565  0.3145818564807065  0.4488929135215073
  0.6063459559960434  0.2610468207047920  0.4052380100518089
  0.6904871267860829  0.4512189826591374  0.8349877006868036
  0.7629719976828986  0.5200078537425342  0.8032518169385335
  -0.0149369701526216  0.6676357972261998  0.7756249296902245
  0.0681645462932979  0.6201041306632062  0.8136780103364557
  0.0891725740457130  0.2057378260043840  0.3880647054961807
  -0.0231121604973968  0.1632429059521975  0.3633562430659488
  0.3852843570108932  -0.0630317730061782  0.8896790744407655
  0.5120882970542115  0.9369509827597328  0.9031022723986140
  0.2902465191526716  0.3580140168198939  0.8188081439379793
  0.2167702589915077  0.4125376640957601  0.7744862038718285
  0.8188385295595312  0.9456624529341771  0.8675990979943030
  0.7177645725608758  1.0112992138795465  0.8433864879533918
  0.0483018534520515  0.8036479834186538  0.7579188850179164
  0.9039563358547367  0.7959455441774407  0.7467995659146255
  0.1639088677413837  0.6412465018809631  0.4844233463000060
  0.1275080171729046  0.6818422847872192  0.4296024087952826
  0.0786326051538776  0.8374646264388398  0.3692002764767708
  0.0625159654059990  0.7471625605357062  0.3432677913638623
  0.8341972488758960  0.3064228354802466  0.7470910553975239
  0.7569560151911047  0.3870018564152431  0.7684275008940152
  0.9046999804745276  0.4173418973240630  0.9258806817446812
  0.8683895983907284  0.4264140390680177  0.8629208578586286
  0.5371653309764175  0.8413977043048626  0.6133459204461464
  0.4666179594094335  0.9259017545948434  0.5886327050864290
  0.2301989194518098  -0.0485491389587806  0.5622753030380302
  0.2934490995188103  -0.0032728820005058  0.5163780332526108
  0.0392551301000638  0.7647716109231083  0.6804962957311116
  -0.0141633303449722  0.7292728614944614  0.6287505186615260
  0.2957234433515192  0.2752833317579539  0.6484351409099675
  0.3915647348834527  0.2570157174957429  0.6040105179165284
  0.6115794138671264  0.3162735026918946  0.6475346019406737
  0.7020170848612063  0.3672360028735592  0.6870784415394268
  1.0067920028012589  0.0805211611493902  0.4349870456353805
  1.0131789974664620  -0.0104376030642940  0.4695510579420190
  0.7848437330158442  0.9034244395526136  0.7861698354708422
  0.7105219709772101  0.8205414039697143  0.7655065923020046
  0.7844465170947755  0.9187325052630033  0.6755030374371067
  0.8732545245767005  0.9371601881208665  0.6288289901127093
  0.3731934346650351  0.6118780710019039  0.5183003682664580
  0.2858575952715283  0.5341484353235700  0.5316087994760886
  0.6448596382866462  0.0172852261396325  0.6392314134856159
  0.6254012254830806  0.0920905915562609  0.6815401495109746
  0.5971901487973619  0.7328017411604510  0.8215633014332618
  0.5142498312215067  0.7398008941037961  0.7688019416201468
  0.8999647539477293  0.7274979847975835  0.5257840603248929
  0.9927128958539345  0.7041627930719542  0.4771747651252531
  0.6460911992444236  0.4505860936190230  0.6080368040787499
  0.6254595325412703  0.5453709317537472  0.5759494646172003
  0.7037359982249201  0.2050809298690009  0.3445003286007104
  0.7693296127479211  0.2662986303794204  0.3855530529300270
  0.2580007880826599  0.5978659845323784  0.8474198594479528
  0.1933982156419632  0.6919483398414397  0.8704802527687407
  0.9468886316054821  0.8162750074639160  0.8625492854506217
  0.9659374354531650  0.8485275427906247  0.9166866775144644
  0.8350723198746487  0.6752785303652574  0.9017796381638977
  0.8795033142713939  0.6643031121913821  0.8467095514121669
  0.8759679242988940  0.3603781687325072  0.5379775839491115
  0.7722671301926509  0.4334936310798401  0.5325608405873262
  1.0518365782716177  0.4441829636526785  0.6375563660134772
  0.1374951131214786  0.5273338704139481  0.6483612911355644
  0.4585086482630555  0.6272336669495321  0.8807532679789494
  0.4000711091644902  0.5620984126099426  0.9172738000704340
  0.3150000112612512  0.2949754298819482  0.7374340192052713
  0.4182229512989558  0.2287885395519779  0.7204117544456380
  0.1748950450656780  0.8177077760668188  0.9210421558471600
  0.3022930613760965  0.7818316426886561  0.9051326843889360
  0.3003194844870526  0.2078107834052174  0.8743648580003129
  0.4112748686976607  0.1639158665584868  0.8528803238617053
  0.7735936761011949  0.5857573111064233  0.7027513077378624
  0.8787464832933851  0.5578336760751256  0.6683905371497284
  0.0535844744341514  0.3141048585481526  0.5904298518738272
  0.9175412104305196  0.3191494722392385  0.6119559928587679
  0.8170384432193286  0.6854276541140558  0.6393462980257755
  0.8084075756221986  0.7865863466508072  0.6252137533664968
  0.0707146045045783  0.4697633903041534  0.7155955100112401
  0.0304291482486769  0.4983077534232880  0.7677899486386658
  0.6569563413504881  0.6438123683139622  0.7681089964838093
  0.6369339209280568  0.5462751700505976  0.7507426400261925
  0.2606486532476163  0.3657795197752460  0.4952607303567903
  0.3141335058522488  0.3478276112782745  0.5506227236698319
  -0.0008900932266409  0.9124499396306853  0.5677479485021903
  0.0524138040007392  0.8686205756326362  0.6187088801617620
  0.6708124727746470  0.6913460113010820  0.5910617889383448
  0.5482300641488191  0.6491796287022541  0.6199528771842228
  0.1820415451152803  0.0830225353969221  0.7654759574593448
  0.2628903217555721  0.0735833006107430  0.8168495870623352
  0.7916122343534746  0.1788673849874835  0.8851292421207300
  0.6770514839048912  0.1333635209010399  0.9107522396801508
  0.4758125898626291  0.5702955187020257  0.6819175671593716
  0.3879812606123637  0.6313373913833397  0.6509774119397151
  1.0834093103840641  0.0440000786298948  0.8397950634393571
  1.0170413297210428  -0.0223167335905028  0.8827533895609377
  0.8706874935406487  0.3719469853212662  0.4463655405041401
  -0.0597035724527315  0.3009037643114373  0.4095483078118594
  0.1199540388336778  0.9831136717337923  0.3979961037102250
  0.1052577427576790  0.9895406843823757  0.3419584469964069
  0.5498838958092747  0.4354547672537504  0.7019250747087242
  0.4332164085071053  0.4473157152079158  0.7362132241389825
  0.5282805360345056  0.5458275954354054  0.4890001510565669
  0.5461063500374304  0.6296732129292100  0.5229768579020698
  0.9354896769062214  -0.1511461974709487  0.5029820448228367
  0.8392313386837454  0.9246115910960873  0.5122202416646318
  0.5518154292159188  0.1574167518253364  0.6142511004306388
  0.5825491170621374  0.2193170944287194  0.5683138603284160
  0.2987774158551017  0.0698275379535477  0.9081425734818256
  0.1723778814700409  0.0155130547065277  0.9016941550917686
  0.9868861339101744  0.2541461293303894  0.8078715578953671
  1.0348972009021835  0.3242695769434175  0.7663169595544382
  0.7452689293725534  0.2040971294431699  0.5543574532319306
  0.7014412214963374  0.2725365501980296  0.5124161938741167
  0.0625071101374699  0.1218472284803442  0.6528185804202107
  0.0466299194448427  0.0443155900522298  0.6102015248004901
  0.5724788394242309  1.0101273477439212  0.4822315416118339
  0.5768471340045854  0.1119886673705161  0.4828491037976740
  0.8043547747590636  0.7517522512038988  0.4207611655096418
  0.8771266620750106  0.7748012413081563  0.3730179218370431
  0.7658532849086040  0.1708187132185196  0.6289455298565488
  0.8998103710706625  0.1559944891838580  0.6054687459358755
  -0.3735252877908125  1.0451023135110979  0.4044820055195983
  0.7125913165625540  0.0554265722616454  0.3574032225713265
  0.2368413978702830  0.2832306897457469  0.4298159215016540
  0.1569684679258764  0.2669016084172466  0.4808890653461505
  0.1983164590137330  0.2459219563746128  0.5692151737263623
  0.0938627099396648  0.1753010725087200  0.5580943864631732
  0.1589390291011535  0.3510160711622214  0.8957456764273802
  0.2991087550375650  0.3528761317826419  0.9042547274194040
  0.5137730199875618  0.3542188633966630  0.3599364045779457
  0.7030850971539552  0.4354386050530349  0.3431495284893084
  0.7108185273069239  0.5971541436717226  0.3520814333710455
  0.3414873596714405  0.6237579112865169  0.3732246193481076
  0.5523267175315703  0.7053860666963928  0.3499139397283232
  0.4575408126765980  0.5800936006315334  0.4044130532799258
  0.5068176025754225  0.4246645974938255  0.3419166651489547
  0.6180659879507125  0.4734633807302452  0.3402301821743159
  0.4031075751585810  0.4808836157281741  0.3561772793172350
  0.6304406615718376  0.5724801113865087  0.3348983252373504
  0.4228965531301209  0.5875361513192928  0.3663852220887789
  0.5243558748900473  0.6336950740264956  0.3375323801669339
  0.5479687217030658  0.7744590255033078  0.4510254749458140
  0.3392397185727295  -0.1927920180031455  0.3666716647146501
  0.5400558855533566  0.7323646606112522  0.8781167914852815
  0.5628822707452578  0.4164360340558494  0.8781702120864164
  0.1226220840945857  0.1533131577210614  0.7125869062402561
  0.1249174213403427  0.4901579092380391  0.9189157731558013
  0.1927770534269260  0.8498670641850289  0.7815177516284819
  0.3085673750419187  0.2260972894291149  0.3828478371170785
  0.5281537898915056  0.2257319249143966  0.8308950837079296
  0.5774276556835353  0.1995644852599090  0.7265925630156738
  -0.0652891484398966  0.2159142800226413  0.8672409942536938
  0.2430930521682362  0.6342951536437195  0.6277084373063122
  0.5447132604262919  0.4215934536381006  0.4903866030688772
  0.6198311132068770  0.8507221419116633  0.3411301871950210
  0.3708834576845110  0.7223643400618478  0.7547480383080073
  0.6742995964780251  0.9225273400551502  0.5178292176616407
  0.5277782889314255  0.2860066785007389  0.4166628234707002
  0.7711291273982688  0.4514861295826307  0.8159494222627051
  -0.0147559009041280  0.6147781759417682  0.8005893215991189
  0.0072976715468258  0.1831183570312439  0.3956673622473224
  0.4613205559255290  -0.0950432928968523  0.8785396896981130
  0.2868532765121724  0.3701099812089872  0.7823089776343803
  0.7966476945807190  0.9798871272576223  0.8376111373505284
  -0.0154181710427269  0.7700275793236468  0.7422963829951333
  0.1005374483024436  0.6426274299874919  0.4579767990718913
  0.0600585817432310  0.7705568858013699  0.3760839819042447
  0.7593445184481731  0.3370353521673941  0.7408826393952187
  0.9299411425995243  0.4055603220320600  0.8897376232867258
  0.5428217801790760  0.9062623586334024  0.6035753359790498
  0.3056549700622677  -0.0499385873498349  0.5437377660890870
  0.0629340650586298  0.7507901127671462  0.6448885335615540
  0.3147522950529686  0.2890019966968054  0.6117491919644134
  0.6377943530840547  0.3769713758224716  0.6583606540125942
  1.0648481437015125  0.0356608863310927  0.4475830740651605
  0.7764297291971881  0.8614713871440538  0.7544123855868792
  0.8051871640180089  0.9032124128380110  0.6407659241658668
  0.2841919726846386  0.6001748199233412  0.5265949527822034
  0.6518816992707291  0.0832625807484205  0.6478717984736532
  0.5981715455314146  0.7410533488851404  0.7826885417651350
  0.9249083206927138  0.7450508876062152  0.4913225121624233
  0.6557372116939559  0.4783264979789119  0.5735838895162937
  0.7145254844692961  0.2152487220644442  0.3816059043009981
  0.1784820898822552  0.6271474095795215  0.8549248205126165
  0.9800178184738039  0.8685159065006541  0.8817801055253331
  0.8283171563030804  0.7034191663781069  0.8671673590267667
  0.8257048108021380  0.3906225431587997  0.5112586387764640
  1.0592459523072368  0.5009696407602332  0.6577386463975290
  0.4166625488745659  0.5651235030860701  0.8810143073566895
  0.3297341728137077  0.2434571520390476  0.7140646272586116
  0.2226348263225256  0.7969486717307966  0.8917522276611407
  0.3298015244723139  0.1477079647693468  0.8635081360026619
  0.7972667494029131  0.5826251372876462  0.6667314280312077
  0.9902007331592066  0.3560928137188227  0.6017641501491303
  0.8336426857403046  0.7273631134645498  0.6101145625371304
  0.0785609977310754  0.4490358014871904  0.7517389310477499
  0.7045086149664126  0.5862375562835562  0.7582348819345850
  0.3149510306974213  0.3938540722505969  0.5223883768613820
  0.0444325879183560  0.9260584363497391  0.5980378280521914
  0.5872460063820746  0.6699257537358350  0.5828328363058148
  0.1940617294981535  0.0488632327301212  0.7950337473723571
  0.7131016517133850  0.1548768501564872  0.8794640043536305
  0.4707781558551209  0.6331198085557787  0.6658818578411687
  1.0580167335217718  0.0410353400148275  0.8761805722743400
  0.8799183122526980  0.3487542088584153  0.4112305428054371
  0.1394541366567958  0.9490342861098549  0.3669150711977192
  0.5065202806738022  0.4749781609082421  0.7262677637263216
  0.4998834993854426  0.6107418476767914  0.4934304037020340
  -0.0718899329907749  -0.0848216150024284  0.5111163573509737
  0.5381841032738877  0.2229955770485522  0.6007128532388663
  0.2575267279952038  0.0093083038788225  0.9186002876212573
  0.9958176784568282  0.2657868936336207  0.7725487021677195
  0.6869620990695087  0.2112163244313553  0.5256586616634609
  0.0330872037634493  0.1098569590671682  0.6177200253219109
  0.5471623354979973  0.0636572731178288  0.4599004983921342
  0.7985001040174503  0.7526922065553979  0.3833266412462297
  0.8270483449609610  0.2012857326927795  0.6074842333057653
  -0.3431416295262367  0.0114894661984500  0.3741884127655944
  0.1798989213768934  0.3109496065320139  0.4541977835834409
  0.1342899358008554  0.2295382442492403  0.5446324983903360
  0.2393698795717137  0.3242806030091529  0.8818702231155195
  0.3048622696883075  0.4454259084357660  0.3643565773992837
  0.0888555962000415  0.4629557060933070  0.4032956364470095
  0.3927747025543388  -0.0007509129817352  0.3717671807445009
