1-pos-1
1.000
11.0985002518  0.0000000000000000  0.0000000000000000
0.0000000000000000  14.4173002243  0.0000000000000000
0.0000000000000000  0.0000000000000000  26.7964000702
Pt  H  C  O  K  
96  166  6  81  2  
Direct
  0.0000000000000000  0.0000000000000000  0.0018699899937576
  0.1249999521128992  0.1666699702868031  0.0018699899937576
  0.2499999943280624  0.0000000000000000  0.0018699899937576
  0.3750000365432257  0.1666699702868031  0.0018699899937576
  0.4999999886561249  0.0000000000000000  0.0018699899937576
  0.6250000308712881  0.1666699702868031  0.0018699899937576
  0.7499999829841874  0.0000000000000000  0.0018699899937576
  0.8750000251993506  0.1666699702868031  0.0018699899937576
  0.0000000000000000  0.3333300219343480  0.0018699899937576
  0.1249999521128992  0.4999999922211510  0.0018699899937576
  0.2499999943280624  0.3333300219343480  0.0018699899937576
  0.3750000365432257  0.4999999922211510  0.0018699899937576
  0.4999999886561249  0.3333300219343480  0.0018699899937576
  0.6250000308712881  0.4999999922211510  0.0018699899937576
  0.7499999829841874  0.3333300219343480  0.0018699899937576
  0.8750000251993506  0.4999999922211510  0.0018699899937576
  0.0000000000000000  0.6666699625079541  0.0018699899937576
  0.1249999521128992  0.8333300141554991  0.0018699899937576
  0.2499999943280624  0.6666699625079541  0.0018699899937576
  0.3750000365432257  0.8333300141554991  0.0018699899937576
  0.4999999886561249  0.6666699625079541  0.0018699899937576
  0.6250000308712881  0.8333300141554991  0.0018699899937576
  0.7499999829841874  0.6666699625079541  0.0018699899937576
  0.8750000251993506  0.8333300141554991  0.0018699899937576
  0.0000000000000000  0.2222199683821562  0.0864100026098289
  0.1249999521128992  0.0555599860957249  0.0864100026098289
  0.2499999943280624  0.2222199683821562  0.0864100026098289
  0.3750000365432257  0.0555599860957249  0.0864100026098289
  0.4999999886561249  0.2222199683821562  0.0864100026098289
  0.6250000308712881  0.0555599860957249  0.0864100026098289
  0.7499999829841874  0.2222199683821562  0.0864100026098289
  0.8750000251993506  0.0555599860957249  0.0864100026098289
  0.0000000000000000  0.5555599783168760  0.0864100026098289
  0.1249999521128992  0.3888900080300730  0.0864100026098289
  0.2499999943280624  0.5555599783168760  0.0864100026098289
  0.3750000365432257  0.3888900080300730  0.0864100026098289
  0.4999999886561249  0.5555599783168760  0.0864100026098289
  0.6250000308712881  0.3888900080300730  0.0864100026098289
  0.7499999829841874  0.5555599783168760  0.0864100026098289
  0.8750000251993506  0.3888900080300730  0.0864100026098289
  0.0000000000000000  0.8888900002512240  0.0864100026098289
  0.1249999521128992  0.7222199606033073  0.0864100026098289
  0.2499999943280624  0.8888900002512240  0.0864100026098289
  0.3750000365432257  0.7222199606033073  0.0864100026098289
  0.4999999886561249  0.8888900002512240  0.0864100026098289
  0.6250000308712881  0.7222199606033073  0.0864100026098289
  0.7499999829841874  0.8888900002512240  0.0864100026098289
  0.8750000251993506  0.7222199606033073  0.0864100026098289
  0.8764803757897230  0.2873705063460423  0.1682028533979251
  0.0015534456826456  0.4555440105374431  0.1718132446425158
  0.1207454613322785  0.6165985710151651  0.1721914035360035
  0.1218638604239023  0.9475121502828563  0.1728638373089280
  -0.0053225645951956  0.1191454363352139  0.1703738015046707
  0.7488929669350588  0.7856146166471283  0.1729046188690307
  0.1331357047417605  0.2832827664930102  0.1707256200166836
  -0.0019443116466570  0.7806017899059476  0.1700440183145090
  0.2464269056583957  0.7795482254754589  0.1688387363394904
  0.8630420492666587  0.9498410624423886  0.1698086555984921
  0.3698937063081285  0.9439703771210590  0.1713142675648124
  0.8739075395458918  0.6178931538780885  0.1723631935334636
  0.2535896667969655  0.1126156391030437  0.1706075706260299
  0.4974526703015198  0.1200986500844037  0.1685748310917156
  0.6164324066299338  0.9549805769456040  0.1705420943719285
  0.2425138802031810  0.4521047921866712  0.1696016445527744
  0.7485062287720080  0.1218738021032861  0.1689586718417064
  0.7528640839418681  0.4572148359780758  0.1713006692829892
  0.6218457935323899  0.2884909021516852  0.1695594134546778
  0.3759186143392074  0.2857723048075071  0.1729196497052231
  0.3745983312678416  0.6165475136820621  0.1741466016992920
  0.4990573847941028  0.7849351683560057  0.1755744400171170
  0.5077449519349300  0.4559865766837210  0.1732961723789243
  0.6295158374544229  0.6211863017324958  0.1748160403870637
  0.0015635222963738  0.0135395501559293  0.2592319668948783
  0.1353851799080967  0.5203109664773744  0.2572071989537421
  0.8689087488046832  0.8535538635145186  0.2554897729831104
  0.2567166046095201  0.3465410201681903  0.2589893719573878
  0.8762398041683847  0.1812852489882099  0.2552026252550632
  0.6179723711037127  0.8518362461648943  0.2606793504761949
  0.7576443851984631  0.3467801499668601  0.2502556288095436
  0.2551261312663189  0.6871857293643221  0.2591452064272815
  0.1160439989530226  0.8488938399001971  0.2596981436524753
  0.7545164162285684  0.6881404617959045  0.2558877342455211
  -0.0043568268056900  0.6804938089354621  0.2574196621982482
  0.0070361786753426  0.3401619122929871  0.2576804431121655
  0.2456009498182349  0.0184610210482679  0.2593344479480348
  0.8769162518802079  0.5094385003248142  0.2588549079551128
  0.4965409277623998  0.0145672634912614  0.2540804456517873
  0.3566661175376377  0.8525578734694617  0.2563003145238807
  0.6147980402210977  0.1816932040289246  0.2576489308606024
  0.3693386054332152  0.1792357031481229  0.2578794032219576
  0.1298830874888894  0.1822909905816020  0.2627539768683357
  0.7570339030931083  0.0283891734882612  0.2569956335761112
  0.3736662050737352  0.5101831977947264  0.2555383601514086
  0.6378668435991466  0.5135638623395244  0.2610307142965340
  0.5011272130933160  0.3476079960208587  0.2642086883929390
  0.5004669546769762  0.6832895024198820  0.2655063397830102
  0.4667138682778256  0.7669663627148943  0.4527228686285790
  0.4745955544169788  0.8595317905923453  0.4261393012600581
  0.4374701118029486  -0.0995733560906478  0.3464501033601231
  0.3082111990622534  -0.1057405454268411  0.3594782334330219
  0.6157301830661025  0.7715319352129308  0.9085559203034503
  0.7293297460336774  0.7192844105875931  0.8788577775449009
  0.5616937616493680  0.4765779918711240  0.8800808171328360
  0.6016648921026067  0.3861453112016541  0.9087818871566147
  0.2618971026313744  0.1716451437994627  0.7123504465000148
  0.1354949668768183  0.1950071921829945  0.7312388663427561
  0.1708092303455634  0.5600966735706628  0.9089820353924207
  0.0629748789514732  0.4712012814888746  0.9032807736632417
  0.2919071412260920  0.8470283308255738  0.8256377151199501
  0.2559622169976766  0.9212185568844845  0.7884099856679859
  0.2630850658607181  0.3203209088145506  0.3686339821252816
  0.3361249395200919  0.2676631249861736  0.4058778488568381
  0.6478444315513603  0.2073989386071191  0.8612328997119557
  0.5394599983839232  0.2597308923544881  0.8390901753965410
  0.5856421321651855  0.1836847517149196  0.7743844056902499
  0.6573284613042026  0.2348429741646994  0.7359047316855805
  1.0525349836799289  0.2070680633512955  0.8667329459201739
  0.0084369644794857  0.3139037021489044  0.8739666839369294
  0.2329713320302580  0.6466036913754165  0.5771577035043337
  0.1571729959115051  0.6731004901211434  0.6262937610512672
  0.3973967308316892  0.4456395389735285  0.4880726965688412
  0.5256210304589471  0.4257170219466663  0.5087228609099601
  0.6996322855009767  0.8180824977217716  0.3528479706874831
  0.6335786643839160  0.9177723810660564  0.3574052582701464
  0.4189745420013705  0.7376519674657990  0.7092119042450973
  0.3867205511036415  0.8212815780337888  0.7501833176858508
  0.5498649234981314  0.8639826609149209  0.4993509280741280
  0.5485156395083806  0.8849077729682525  0.5616660183334719
  0.4676450251427655  0.3255711039219827  0.4434679158345357
  0.5672114187120930  0.2555424873021870  0.4112395294640692
  0.7149825904462209  0.4386865727495857  0.8318476639960701
  0.7537902985895032  0.5068920739114888  0.7883870483779624
  0.0555320538556588  0.6651597575069303  0.7859096423672263
  0.1541098598635074  0.6189135814249328  0.8187784490611334
  0.1279841230052347  0.1964021617741876  0.3865734050492807
  0.0399461630257743  0.1670124622113090  0.3428916844736234
  0.6295538965786663  0.0596391943930506  0.9061389166712337
  0.6029671459091654  0.9555495237020969  0.9152672168592886
  0.3378289226232983  0.3722002535714373  0.8176753879662637
  0.2660940279044486  0.4109595932471242  0.7710769150024034
  0.9067188955253576  0.9301931494910751  0.8743674647833068
  0.7783302933834690  0.9844375956379243  0.8715487797098593
  0.1233221383563081  0.8074239310408199  0.7797752016599163
  0.9879315182176729  0.8324227871576210  0.7667116479966281
  0.1432100071576988  0.6791009029761237  0.4804344219138952
  0.1278287674291766  0.7298325804345164  0.4303660125870754
  0.1184298247942848  0.8437144946942103  0.3797240527885601
  0.1863281663902840  0.7625361185702697  0.3454526365724211
  0.8664164275295169  0.2954818393127301  0.7342866661250419
  0.7726026350911074  0.3670820754138077  0.7530468187904388
  0.8682114623763890  0.4243846527720532  0.9148405091384737
  0.8585460183284329  0.4371325738696679  0.8584269738076169
  0.2715553516351185  0.9127103235126601  0.6488008871323826
  0.3965275231386556  0.8946036353644861  0.6743876004335654
  0.1145877503488583  0.0814799194803503  0.4715345960240283
  0.1396906882484917  0.1520378298778492  0.5155226632611212
  0.0639580704685640  0.7746848869232228  0.6838854188133945
  -0.0061794589668885  0.7041176895442560  0.6542171740821138
  0.3253774702049784  0.3226845261471885  0.6401861452829086
  0.3866206204576229  0.2731607668516324  0.5949399255062328
  0.6315372294255012  0.2839679508858100  0.6229463063907528
  0.7274758125712114  0.3287863674788773  0.6648774157918826
  0.9803327654775158  0.0942358456203935  0.4138783858856315
  0.8937814996031732  0.0674325841506296  0.4599829558227671
  0.8082308240381564  0.9277379308544861  0.7872743714205392
  0.7585317035727095  0.8325100559513914  0.7674409264985463
  0.7998208152547748  0.9007521989666083  0.6913700272486537
  0.8801782385161164  0.9237404245250513  0.6459216785036908
  0.3392334697464533  0.6338569454215344  0.5072332855641886
  0.2367104106857970  0.5572674853963574  0.5167424900816781
  0.5070871560044559  0.0557083572794223  0.6534684457474330
  0.6100864088732929  0.1114477132058206  0.6791747250758285
  0.6350275814028972  0.7459902797315989  0.8066684995585925
  0.5726042101471603  0.7712370979456291  0.7569291236943611
  0.8455088243817522  0.7538738553547540  0.5121716911915610
  0.9444542159198475  0.7351393876112889  0.4761220020516276
  0.6496037166130364  0.4003293882145837  0.5812290684792628
  0.6459473102176390  0.5093406002479594  0.5618632129598454
  0.6740185209606826  0.2155989257171010  0.3443583489881493
  0.7514040806682390  0.2842492317107154  0.3809468097527106
  0.3340196400589137  0.6110730830208365  0.8714660943642832
  0.2543885182632762  0.7017316001679651  0.8825434538313151
  0.9672653749914473  0.7804130200559993  0.8788898314923621
  1.0086701688531650  0.8503947737826397  0.9238090022446526
  0.9178297660305864  0.6414721232559357  0.9093747973631491
  0.9532050910918554  0.6283723135300016  0.8507112569143642
  0.8961310251614368  0.3523940251821090  0.5156777476377208
  0.7659808733275681  0.3927889506632614  0.5149623077372202
  1.0292693365526855  0.4278734135745246  0.6178458519699370
  0.1128794663041808  0.5210850862658484  0.6216382346046856
  0.5562427780455078  0.6306773320274306  0.8805940724307108
  0.4958087698207281  0.6017467170016724  0.9299726998035526
  0.3498169977038410  0.2828293843966186  0.7296064164769011
  0.4579783730577146  0.2176932078940865  0.7177869859761518
  0.1750325301461287  0.8360116805423053  0.8941495745410092
  0.3068040559036571  0.8328057291865797  0.9178882872462063
  0.3303666617212843  0.1848695358169535  0.8762399870201949
  0.4485758792583316  0.1396280494739950  0.8669667226022501
  0.8198565928242654  0.5708025671914286  0.6896485344892103
  0.9237126114528237  0.5533568384983362  0.6488284464537117
  -0.0095641652197813  0.2747733845566320  0.5858750365150382
  0.8745549707246076  0.3304363908487107  0.6002220880702037
  0.8154927325097021  0.6712084637170581  0.6028419698235767
  0.7952092133591314  0.7776494380690719  0.6117417386423448
  0.1060518754512896  0.4604362750184947  0.7020673224543175
  0.0944760390242766  0.5252692642715421  0.7527100468294158
  0.6898864258491325  0.6334448131979170  0.7539883917679245
  0.6457661890972720  0.5270039562603963  0.7351253393588020
  0.2141543341691164  0.3976734079683335  0.5191335482772621
  0.3006073145656691  0.4034635707936383  0.5634693146260115
  -0.0409518668638392  0.9164317878412983  0.5777777240203910
  0.0462396837731989  0.8591865720685880  0.6114020427699085
  0.6409630657391088  0.6767342313892692  0.5842565825888996
  0.5186116707405127  0.6349481362239209  0.6042849533250435
  0.1871839656410395  0.0893188844420088  0.7755851711705274
  0.2769191727325091  0.0743024872780585  0.8193796439476776
  0.8626651376114716  0.1839530302788549  0.8752710890065818
  0.7965169835326416  0.2012865263781313  0.9228824031889976
  0.4555473949086061  0.5788255506280253  0.6777488614523604
  0.3595220601227503  0.6372629134554965  0.6515089009704316
  1.0972855839531008  0.0832596454762585  0.8407274262132575
  0.9581535503930202  0.0641700921397660  0.8681578506125942
  0.8533286305114970  0.3667577244654854  0.4299414676530470
  -0.0818227197997062  0.2981161307687675  0.3973061262859604
  -0.0595625026627167  0.9381520280893441  0.4099297007069209
  -0.0196660178445823  0.9201039573166045  0.3533316157504784
  0.5491033826315059  0.4164155619844208  0.6831055881217621
  0.4902767193267848  0.4291252307468951  0.7352226805760239
  0.4965007110943930  0.5544139874071388  0.4787125743493297
  0.5312707771253790  0.6372251876960590  0.5172887451070416
  0.8743118572192885  -0.1267898102252881  0.5197887283109236
  0.7743506608387172  0.9275554497200803  0.5456251694592226
  0.5377172171917650  0.1702698632967664  0.6086224865047060
  0.5413997034442091  0.1878230001922205  0.5484331068091235
  0.3033025277045027  0.0480788525463099  0.9033532484768328
  0.1624450872186626  0.0103100076982143  0.9061535815366250
  1.0486631663600139  0.2723710707696426  0.7917006151916905
  1.0679065008245388  0.3428361741866956  0.7461782164364724
  0.7925160705721002  0.1422859998533186  0.5446494578176773
  0.7668550937969895  0.2255927530743999  0.5067068668526062
  0.1060175100603497  0.1077288027325803  0.6729075677912663
  0.0606856108320370  0.0250627251689589  0.6308940118452941
  0.5741681757646937  1.0087949262918368  0.4969179429854891
  0.6575928836075245  0.0936067705883904  0.4876709921879617
  0.7787992518356848  0.7586633853031984  0.4177973239976500
  0.8653874424377566  0.7868067956704262  0.3772582731716376
  0.7764666333455603  0.0849263124129364  0.6193961542452863
  0.9159961115062556  0.1168380598096192  0.6297533820024822
  -0.3752783714290134  1.0322868744950895  0.4217506468776815
  0.7124930141545487  0.0715971581184242  0.3862863156872826
  0.1349042791486329  0.3022127977855542  0.4539813317173393
  0.0946095511264869  0.2787970100203110  0.5108134622725774
  0.2015870875469992  0.2447849396207846  0.5906482477286685
  0.1161247133540386  0.1499343863670533  0.5992871855297741
  0.2191350550904891  0.2954968991711379  0.8700277333494072
  0.3240273055466887  0.3365707426638263  0.9031279483065044
  0.4786061611377185  0.3563830728335595  0.3579208321891731
  0.6859628684303779  0.4269427960115091  0.3537417150649838
  0.7078106816572753  0.5985695671756047  0.3439447255024959
  0.3058779455764232  0.6305424726245082  0.3471012295358142
  0.5360536078498627  0.7007668760806802  0.3610220806062102
  0.4012109378902631  0.5959416149369365  0.3990082111137923
  0.4851980791212437  0.4226102005998718  0.3387544861033361
  0.6091017129637508  0.4665392136915549  0.3404632548439148
  0.3803480398908288  0.4940344879754229  0.3448485722855171
  0.6210457274695396  0.5668857033735538  0.3372342730861666
  0.3944623821123910  0.5976943337058368  0.3572463038774353
  0.5138571365059037  0.6337264653683529  0.3420629641290315
  0.5173778275824897  0.8193499300576260  0.4495282006479647
  0.3870737146132215  -0.0872707583268135  0.3744479785946527
  0.6420029805418433  0.7407059052637919  0.8773087061587723
  0.5975219841549727  0.4123591851600393  0.8749540468487642
  0.1816522301626317  0.1408906112238932  0.7207148796706205
  0.1314885628410307  0.4968155069371021  0.9227156199722860
  0.2793030588342109  0.8557247995506043  0.7904558955684344
  0.2479628991091536  0.2745858141753589  0.3953896200214823
  0.5721185447439339  0.1947354280358211  0.8425865343236564
  0.5918801479176986  0.1868548225873404  0.7391576284579695
  0.0693253567278349  0.2765219274119379  0.8579616325279177
  0.2229064051423316  0.6296399029063535  0.6152697812507674
  0.4813653182044612  0.4274951260993975  0.4779782903466855
  0.6210462366644643  0.8527550900950270  0.3425916511378419
  0.4464602260829224  0.7968437753926145  0.7251562474360000
  0.5862794134860425  0.9017790569337503  0.5295606403966518
  0.4766026576917106  0.2687992678662665  0.4199844618649181
  0.7760018639278038  0.4459048681156346  0.8064693812484457
  0.0826121792943419  0.6029457800877600  0.7954419664678828
  0.0420069573476279  0.1751554312882881  0.3791225680683075
  0.6153434212692279  0.0014056936031506  0.8889488869883936
  0.3442587073041994  0.3824788556324688  0.7811205198036056
  0.8609534633339565  0.9800498511423650  0.8554935595954812
  0.0479738967986820  0.7796179650650046  0.7658082485460830
  0.0804840095358946  0.6874662524537409  0.4538851334297616
  0.1876849531414992  0.7956247444349059  0.3802363419902453
  0.7862897569322196  0.3188591380827128  0.7262153211707425
  0.9193638355637415  0.4278569907979772  0.8863551922376836
  0.3577566994834314  0.9270811633215440  0.6455240619853492
  0.1781840120586805  0.1155345348009408  0.4876865726688809
  0.0601224832419839  0.7474428338002659  0.6508922817806632
  0.3193425695354815  0.3167943883281210  0.6028197268917487
  0.6663335977940442  0.3440460672060973  0.6360053897819267
  0.9542213303353668  0.0431489192651674  0.4373052963047711
  0.8224837647158253  0.8806096083163467  0.7612229026907402
  0.8030828947320562  0.8863229155180076  0.6542008790910382
  0.2530064216329218  0.6249673942083339  0.5141472921999545
  0.5822302360494145  0.0920301275105354  0.6461159355489043
  0.6563219326069412  0.7433790538630727  0.7711247324105867
  0.8674873508822529  0.7674382588254111  0.4783907879049785
  0.6391813378973861  0.4433615685984200  0.5508161723415349
  0.6880657214168626  0.2372211833555027  0.3794691202273913
  0.2522659252132666  0.6383852104145852  0.8709562552640978
  1.0058900772642139  0.8432563570333973  0.8872719955596089
  0.9121674983390750  0.6721983303271705  0.8741817187470123
  0.8209202344454012  0.3481829202348963  0.4975058412538658
  1.0537130945510693  0.4818786422502563  0.6405785056885025
  0.4984235722302062  0.5842342458682457  0.8916179084245802
  0.3754158744217941  0.2372619681273290  0.7062090752759371
  0.2620512567928543  0.8244134141263670  0.8860007095804940
  0.3596695241370648  0.1190244149877455  0.8705728031260092
  0.8545912604148236  0.5945712127817051  0.6588452132580893
  0.9618733324413474  0.3401947307328225  0.5936300937524133
  0.7864208734675158  0.7272258461420129  0.5873172377435152
  0.1184017205466006  0.4665099311772539  0.7385680310098567
  0.7193994403888111  0.5707740227418023  0.7462113741142825
  0.2713610505357739  0.4411159549123408  0.5345573838714929
  0.0169550069586637  0.9214994337294553  0.6060261326766642
  0.5721155021166208  0.6411082806835824  0.5730171362225597
  0.2005972052520272  0.0519294375751512  0.8069420113467731
  0.7898626847783552  0.2200310197573084  0.8863606632860190
  0.4464426114867550  0.6430409811522204  0.6636178525516124
  1.0376410553427924  0.1038181328413498  0.8699409807709297
  0.8665778119021225  0.3553138226230368  0.3926280682866918
  -0.0279406531661525  0.8916676134643071  0.3858049962687707
  0.5191120474827757  0.4639793501230766  0.7066105887132577
  0.4809846707111826  0.6217542038135110  0.4855735129499761
  -0.1395881073885403  -0.0655891013149733  0.5383389372344273
  0.5125426619670908  0.2139212930657928  0.5820215258781809
  0.2480978185636770  -0.0039088927554560  0.9209223212726805
  1.0428552789033689  0.2803547181591863  0.7561432814153670
  0.7768557266916906  0.1564983438367393  0.5088699928190848
  0.0571141879369867  0.0899409378889423  0.6433013879118180
  0.5797062335117331  0.0641323889920516  0.4754338694497970
  0.7931455064185216  0.7483045292568854  0.3833702114794305
  0.8348598418148662  0.1389714428380283  0.6182497331879979
  -0.3457696387651669  0.0190952381733707  0.3852580477174130
  0.0942089706427158  0.3282319901283572  0.4845516991493063
  0.1307461398817968  0.2036002646218405  0.5775117931199218
  0.3070668785674244  0.3092650417159836  0.8711860557740121
  0.2819486235892540  0.4603819579627480  0.3609296198729210
  0.0561502223689124  0.5053684010214027  0.3771477106038211
  0.3747310849252343  0.0820744982618583  0.4125322667985339
