1-pos-1
1.000
11.0985002518  0.0000000000000000  0.0000000000000000
0.0000000000000000  14.4173002243  0.0000000000000000
0.0000000000000000  0.0000000000000000  26.7964000702
Pt  H  C  O  K  
96  166  6  81  2  
Direct
  0.0000000000000000  0.0000000000000000  0.0018699899937576
  0.1249999521128992  0.1666699702868031  0.0018699899937576
  0.2499999943280624  0.0000000000000000  0.0018699899937576
  0.3750000365432257  0.1666699702868031  0.0018699899937576
  0.4999999886561249  0.0000000000000000  0.0018699899937576
  0.6250000308712881  0.1666699702868031  0.0018699899937576
  0.7499999829841874  0.0000000000000000  0.0018699899937576
  0.8750000251993506  0.1666699702868031  0.0018699899937576
  0.0000000000000000  0.3333300219343480  0.0018699899937576
  0.1249999521128992  0.4999999922211510  0.0018699899937576
  0.2499999943280624  0.3333300219343480  0.0018699899937576
  0.3750000365432257  0.4999999922211510  0.0018699899937576
  0.4999999886561249  0.3333300219343480  0.0018699899937576
  0.6250000308712881  0.4999999922211510  0.0018699899937576
  0.7499999829841874  0.3333300219343480  0.0018699899937576
  0.8750000251993506  0.4999999922211510  0.0018699899937576
  0.0000000000000000  0.6666699625079541  0.0018699899937576
  0.1249999521128992  0.8333300141554991  0.0018699899937576
  0.2499999943280624  0.6666699625079541  0.0018699899937576
  0.3750000365432257  0.8333300141554991  0.0018699899937576
  0.4999999886561249  0.6666699625079541  0.0018699899937576
  0.6250000308712881  0.8333300141554991  0.0018699899937576
  0.7499999829841874  0.6666699625079541  0.0018699899937576
  0.8750000251993506  0.8333300141554991  0.0018699899937576
  0.0000000000000000  0.2222199683821562  0.0864100026098289
  0.1249999521128992  0.0555599860957249  0.0864100026098289
  0.2499999943280624  0.2222199683821562  0.0864100026098289
  0.3750000365432257  0.0555599860957249  0.0864100026098289
  0.4999999886561249  0.2222199683821562  0.0864100026098289
  0.6250000308712881  0.0555599860957249  0.0864100026098289
  0.7499999829841874  0.2222199683821562  0.0864100026098289
  0.8750000251993506  0.0555599860957249  0.0864100026098289
  0.0000000000000000  0.5555599783168760  0.0864100026098289
  0.1249999521128992  0.3888900080300730  0.0864100026098289
  0.2499999943280624  0.5555599783168760  0.0864100026098289
  0.3750000365432257  0.3888900080300730  0.0864100026098289
  0.4999999886561249  0.5555599783168760  0.0864100026098289
  0.6250000308712881  0.3888900080300730  0.0864100026098289
  0.7499999829841874  0.5555599783168760  0.0864100026098289
  0.8750000251993506  0.3888900080300730  0.0864100026098289
  0.0000000000000000  0.8888900002512240  0.0864100026098289
  0.1249999521128992  0.7222199606033073  0.0864100026098289
  0.2499999943280624  0.8888900002512240  0.0864100026098289
  0.3750000365432257  0.7222199606033073  0.0864100026098289
  0.4999999886561249  0.8888900002512240  0.0864100026098289
  0.6250000308712881  0.7222199606033073  0.0864100026098289
  0.7499999829841874  0.8888900002512240  0.0864100026098289
  0.8750000251993506  0.7222199606033073  0.0864100026098289
  0.8725151382259483  0.2845062288490392  0.1679906253044087
  -0.0107379464428693  0.4520149159837871  0.1716033475449480
  0.1132152116225084  0.6189097991772753  0.1725527615943484
  0.1164594638893100  0.9549945487709018  0.1697227336689057
  -0.0071962431849336  0.1221519341555854  0.1702252001966753
  0.7472223394016682  0.7817545516117758  0.1697635946016105
  0.1307173001743825  0.2853639054186898  0.1737025449540267
  -0.0046936271134067  0.7886401388961884  0.1720537947680220
  0.2363756492391414  0.7832984791053907  0.1732529032981164
  0.8679599457447118  0.9536136489845158  0.1696019616438754
  0.3681569789609472  0.9513544426148585  0.1678523282312835
  0.8697924191545046  0.6213352575471484  0.1674895759072947
  0.2464252852953204  0.1148491954276685  0.1720899512777569
  0.4999980167140153  0.1115167646637574  0.1725265989680939
  0.6201287620986239  0.9434777998500364  0.1737054551956933
  0.2419592964251610  0.4495872593035851  0.1686206401890863
  0.7402924509793540  0.1242632445761519  0.1725528712807239
  0.7405889191349921  0.4506931356224487  0.1752872175215640
  0.6175035560402400  0.2847755844939646  0.1755440951499755
  0.3752001871266020  0.2834236800460606  0.1738322966367487
  0.3689627443974574  0.6181216542456155  0.1725235620862820
  0.4864738895351511  0.7799081277539210  0.1736418183677786
  0.4971212559377274  0.4488006424874294  0.1742435590776411
  0.6215452397256304  0.6181170171152957  0.1757996060276331
  -0.0092389027953007  0.0171757073895590  0.2572922106677795
  0.1171458398704940  0.5098406103322225  0.2552750524689769
  0.8634756078007696  0.8478844683067921  0.2587652839498842
  0.2438311424159408  0.3477295344623658  0.2572035729293602
  0.8804664022704473  0.1827262194248929  0.2542700402348914
  0.6038742075725976  0.8437164004324257  0.2628345231019472
  0.7425578329165147  0.3439212258230369  0.2572300856996629
  0.2304916408219313  0.6830897116854736  0.2619773275891236
  0.1093024415801816  0.8535449215907192  0.2642321647255192
  0.7422973410361337  0.6855844712132925  0.2585730471163355
  -0.0106333948121378  0.6825316124938899  0.2626282407138085
  -0.0038834179233370  0.3481428392009295  0.2562383292461700
  0.2313221406814511  0.0177007252765585  0.2586934498380275
  0.8755447323456175  0.5184056168576378  0.2581859080874800
  0.4912334336989161  0.0154846645437627  0.2602307599353570
  0.3552795670622701  0.8485426732239656  0.2575047238406341
  0.6237105886696106  0.1813350674624614  0.2637926221948380
  0.3758403539003828  0.1783483277310225  0.2537260063175812
  0.1270567543097814  0.1860734271301652  0.2619173953334552
  0.7410997690400575  0.0149765885596298  0.2551627179280641
  0.3630263500824404  0.5164788262541391  0.2568889736220684
  0.6149587450784689  0.5173520843401974  0.2656673479105459
  0.4954242991532334  0.3486651877809575  0.2660048368820611
  0.4894047138503305  0.6755493601835488  0.2658793797351610
  0.4836128983489905  0.6515734659507725  0.4799198220063004
  0.4787392393885173  0.7270911430582326  0.4369129389555579
  0.3642306889387495  -0.1906433399276355  0.3618153552231106
  0.2714508892686999  -0.2326178378561741  0.3991922203346982
  0.5645224842864566  0.6818487195425865  0.9158197947451691
  0.6886313875300820  0.6467356265137855  0.8993775883500654
  0.5252713929663164  0.3973537500415164  0.8836662904183631
  0.6240631849043464  0.3599299049106089  0.9190574251124094
  0.1793884348452486  0.1431537585325000  0.7052244780714291
  0.0511968900760124  0.1336050611093884  0.7213504721104774
  0.1880972911057442  0.5339704296387280  0.8988889582331206
  0.0789655211079409  0.4559927113898465  0.9006987656614674
  0.2296163340075332  0.7929756005101908  0.8104071987024157
  0.1739943114374224  0.8760789699247077  0.7811566982565867
  0.2839774827944740  0.1577762595708479  0.3444222362041751
  0.3823171838656154  0.1866173450952487  0.3860467715551162
  0.6575075324899403  0.1201900346695550  0.8859638147551663
  0.6007229834696538  0.2152965978310067  0.8697484756476116
  0.5715733874377457  0.1239934501389490  0.7971504271633517
  0.6042746048153943  0.2093064647161785  0.7618515181187780
  0.9821303916745117  0.1635615765721139  0.8915318288096336
  -0.0212378977386401  0.2725953028276358  0.8731932589676910
  0.1165572426229568  0.5249817008348723  0.5751287096149469
  0.0726167511749427  0.5748035176955165  0.6242491526017566
  0.3683381039647218  0.3648346430862637  0.4836004623364052
  0.4841830578981579  0.3619392468781968  0.5167637191870246
  0.6578433582335488  0.8294973994675656  0.3583665606963125
  0.5377123496962679  0.9023138863317678  0.3619178477815440
  0.3339132293121276  0.6681505035016156  0.7007767291093383
  0.2975840321005848  0.7479375245668477  0.7384016567846503
  0.5124625268425405  0.7730958302105529  0.5305168005947709
  0.5159714643220602  0.8192552718914805  0.5830192919374262
  0.5034614543432361  0.2743806655238094  0.4461437722112189
  0.5868321617638115  0.2342665880472768  0.4026024196510468
  0.6828413350687527  0.3882483565311046  0.8405932627326936
  0.7117801985559982  0.4598735406872552  0.7959291674562916
  0.0084817980866138  0.6110739316124459  0.7794120560517559
  0.1049595664793604  0.5772754145795068  0.8209138761054412
  -0.2585124064789454  0.0304742720942632  0.3513399656273206
  -0.2587351839122837  0.1173500978600968  0.3852552005737743
  0.4409355832024526  -0.0514896598843660  0.8574520515444936
  0.4439929989280139  0.9278760167422062  0.9139790643533710
  0.2617981542622178  0.3386584106482433  0.8137563357120473
  0.1942686272273874  0.3470499794175532  0.7647610174468875
  0.7489839027081004  0.8645701795604523  0.9024011186297950
  0.6263865529464221  0.8885484110477407  0.8809351776342474
  0.0319115997805703  0.7742284564821816  0.7602364658771850
  0.8910485830007628  0.7646948710076741  0.7626382352018478
  0.0429323151407526  0.5626086502817366  0.4618519319377974
  0.0144793291304325  0.6426508857659482  0.4227631618546531
  0.0656726859993348  0.7907298855291413  0.3877995637091725
  0.0762343328651795  0.7160825970592742  0.3470849387169410
  0.8027353256269986  0.2599512503376454  0.7357308055578995
  0.7259318495301491  0.3385833984141097  0.7695565451171474
  0.8873193725794459  0.3631084459125339  0.9142350844673425
  0.8696211420578813  0.3928008440827874  0.8580897265812609
  0.5938467279244396  0.8191335459113943  0.6646267554762282
  0.4628383533321892  0.7755969899727130  0.6780310315155104
  0.0188462970180207  0.0481839060567755  0.4800867719245088
  0.1017635979434992  0.1135579112267179  0.5198218230138566
  -0.0267278454268530  0.6899560946184686  0.6925454236346417
  -0.0922328130896768  0.6210331512143233  0.6536320827280914
  0.2966672651618851  0.2175427228055993  0.6375785554343862
  0.3888742967591523  0.1782610554275797  0.6013815107470786
  0.4899292130139950  0.2760420262867370  0.6829534305748783
  0.6158826199415016  0.3214565932315542  0.6939239996710952
  0.8561032611463890  0.0116465863918813  0.4395942594094909
  0.8583029815181610  -0.0719150975612246  0.4824650161600422
  0.7685623692639540  0.8522642011081922  0.8172622679362971
  0.7096569728619520  0.7886749799823963  0.7825505120600138
  0.7471143199240089  0.8723026812470095  0.7217762863418707
  0.7791761623645935  0.8599004813400791  0.6647803472680069
  0.2276163295568057  0.5323069615672524  0.5057750127253883
  0.1644424344455012  0.4353846249674508  0.5061892659262256
  0.6568680771816567  -0.0046125606434910  0.6885491065092271
  0.6217975364176582  0.0916854385727533  0.7135767229219937
  0.5502199784344379  0.7166691639801562  0.8268458624238860
  0.4810952527603023  0.7061417254556963  0.7733667270047341
  0.6912927567538391  0.6832567413070071  0.4591634364193223
  0.8254180497688638  0.6351805171792922  0.4565959937844994
  0.5940097879739006  0.3453092788904392  0.6016590321372847
  0.5468243820975466  0.4393690777641802  0.5781261372802147
  0.7333004598959268  0.2454461585974091  0.3357950184064721
  0.7915047308824713  0.2654287632541688  0.3868008080916310
  0.3416207091480745  0.5745017351958592  0.8551884498352679
  0.2695155172262911  0.6727426745717866  0.8642997488963501
  0.9777162368888634  0.7522349922921554  0.8736884511228027
  0.9767948457758306  0.7871164419863486  0.9292625953772061
  0.8809049732836083  0.6139288120935104  0.9133285915415627
  0.9162975165992057  0.5849096985014361  0.8615458340866490
  0.8411966190644403  0.2980514595900104  0.5488812011489804
  0.7154337956438951  0.3512673787054946  0.5336194325110803
  0.9819226307745984  0.3496898170784110  0.6466702675883234
  0.0315629065416462  0.4498945734491651  0.6423537554263545
  0.5131670312280525  0.5620852786807705  0.8835230728857861
  0.4176523011609812  0.5167788506368394  0.9217563598465728
  0.3503277945566933  0.2517064796072938  0.7326073469447748
  0.4154279410816997  0.1604919229468529  0.7246457480792147
  0.2001983282867109  0.8106397650443218  0.8867078399506317
  0.3503723303127672  0.8153637352287817  0.8855032341186753
  0.3128116537580777  0.2255070896227976  0.9163281475934739
  0.4461989485828809  0.1766946272719160  0.9066489118782093
  0.7536205130727894  0.5369619106531350  0.7051246182024545
  0.8476106262442351  0.4776221313816981  0.6765080446518613
  0.0111123158987177  0.2072947435583493  0.6022522845278429
  0.8721998938397140  0.2173193229561205  0.6224945957554328
  0.7375018641975970  0.6145301225930579  0.6244139352101827
  0.6554391045330840  0.7036875694313691  0.6152932146036936
  0.0091371578771243  0.3839092471675803  0.7188821713265391
  0.0222977161765495  0.4377491715170566  0.7721088351494215
  0.6240754367579227  0.5862940882685549  0.7695911318413929
  0.5711916807382921  0.4976953369401300  0.7523353090297973
  0.1716962208827221  0.2798513048580076  0.4856225096956792
  0.2546220059545145  0.2758506677967924  0.5373110026526238
  -0.1318243563100083  0.8268516107202586  0.5817146673382854
  -0.0778005726548467  0.7657565870891775  0.6271698806172722
  0.5934555294650535  0.5916941576358264  0.5830904334786409
  0.4883049212276272  0.5648077601502098  0.6208867768474029
  0.1462038342826395  0.0367486184623532  0.7596039441483110
  0.1154390957455904  0.0207700735950055  0.8187582517212451
  0.7631384624266102  0.0081616046117756  0.8750316418128099
  0.7843200388258066  0.0630358149834620  0.9255473319784215
  0.3563996255492701  0.5062763987738483  0.6815268331214945
  0.2800823021377011  0.5359708264156079  0.6389240203515224
  1.0612952324517602  -0.0476695787704850  0.8953166581051473
  1.1467918828524397  0.0262188644627710  0.9198121203082946
  0.8452880072583213  0.3287618785666325  0.4599997198507270
  -0.0514950222853136  0.2862373679605029  0.4308031077255759
  -0.0107519072390566  0.9409319889749783  0.4188424975443439
  0.0461235419548671  0.9605766801511136  0.3598931875227828
  0.4711862803942239  0.4023985153074440  0.7096249787913423
  0.3651765474206916  0.4229410504209750  0.7517178057996377
  0.4227001893556870  0.4983661290474969  0.4945612580414458
  0.4251397437176026  0.5808523699940220  0.5357805883061979
  0.8016914714361478  -0.2186964260885458  0.4943145251078175
  0.7115598719312721  0.8409064096803626  0.5262079051536850
  0.5354574390297622  0.0757219319716986  0.6257874215592290
  0.5682953917739533  0.0975552087504850  0.5672061685928754
  0.3721275548045485  0.0913862049691741  0.8567038599722122
  0.3067341666409277  0.0262008517491589  0.8147882542095902
  0.9420193269089997  0.1782991364060888  0.7908182003509636
  1.0033433715779736  0.2650588022200627  0.7625729718084285
  0.7620199382189827  0.1131196635172508  0.5536323114088091
  0.6947788866472655  0.1838383170264242  0.5226617283220562
  0.0538955688092171  -0.0068648861132255  0.6697011993509193
  0.0084485499727580  -0.0789537124073635  0.6269083470350880
  0.4570628251936370  0.9138315497234284  0.5254125531644563
  0.4016125409175980  0.0006742954747946  0.5532472082093881
  0.7949449597813091  0.7676451547389034  0.4023006826722430
  0.8431837165100095  0.7949665700158142  0.3476066491393625
  0.7601285873405974  0.0969119679178935  0.6567389087712128
  0.8936857105888126  0.0541905603507631  0.6344693048267772
  -0.4452836039714906  1.0592175936699308  0.3867734936315513
  0.4522182225464207  0.0435159400400474  0.3533985788125054
  0.1713999744327149  0.2211328884603839  0.4106607127849867
  0.0715840566270338  0.1828055694267797  0.4449326262283638
  0.1938447757075177  0.1522118577860543  0.5949812593830632
  0.0892085143251156  0.0694412363427501  0.6042487408227126
  0.1707260284913444  0.2701832485623450  0.8709821899828727
  0.2138786877006214  0.3549885042744535  0.9019595145386112
  0.4855482865737660  0.3509697970061991  0.3678195442999458
  0.6709150626628451  0.4316733036404651  0.3530639628276526
  0.6847469842033346  0.6087191905463774  0.3496431770444929
  0.2983180465633659  0.6084032400196399  0.3556216510402652
  0.4899318205645057  0.6929918560314293  0.3553712624887275
  0.3955720985443930  0.5712095729906219  0.4028233598700497
  0.4877165166457612  0.4077197329977502  0.3395567121577197
  0.5968125173782590  0.4738357221753482  0.3415240264000020
  0.3715016238731262  0.4655151919211601  0.3450377074561640
  0.5993587078507435  0.5704966819541519  0.3387575915316691
  0.3794532516064036  0.5677719762818798  0.3611532060779450
  0.4900317455250715  0.6226515103895506  0.3373943001192294
  0.5282011853042250  0.7037836220818969  0.4640703621987379
  0.3521655791525618  -0.2022908505910373  0.3966466121365335
  0.6106931537079302  0.6663196928443255  0.8849348619806233
  0.5837620136692999  0.3427705056436764  0.8863300749234833
  0.1168201657507485  0.0976774158816807  0.7055755620295486
  0.1445118439529592  0.4828422206306653  0.9195839943255514
  0.1965297072139316  0.8099468799795326  0.7775009988326578
  0.2965555181625733  0.1683816618806568  0.3805884264036473
  0.5811163578388882  0.1506871454988710  0.8762765862311871
  0.5506530308461113  0.1537350686478900  0.7644708308143686
  0.0210927556776901  0.2118713464086380  0.8680584407518286
  0.1270694088123551  0.5252752620310848  0.6133750908420932
  0.4562413497336061  0.3783492748598044  0.4815010981549246
  0.5795225265284702  0.8509424652628165  0.3441385878043868
  0.3679905902635464  0.7201379701173627  0.7199304061501129
  0.5466263036409872  0.8220773027063363  0.5484026237517777
  0.5056560274970322  0.2306565681482477  0.4193775394030428
  0.7505256456293771  0.4076876935109660  0.8182656119164423
  0.0330461944478054  0.5629696563313454  0.8026331958343341
  -0.2536437784774966  0.0431288989912250  0.3871912520569619
  0.4674009706364315  -0.1024115530875468  0.8822595333613986
  0.2738562994407338  0.3360307629742254  0.7765061254268958
  0.7126309645771521  0.8872894365367288  0.8718526368018071
  -0.0332577560774606  0.7298342096646521  0.7564429739777621
  -0.0240071004689834  0.5869948894686972  0.4392600864617613
  0.0968024579560428  0.7258507877127942  0.3818377972151105
  0.7204530277415800  0.2912160474971209  0.7402631645905243
  0.9282193582713307  0.3859452151812398  0.8845215740922879
  0.5170862302020712  0.8019474926250530  0.6491474612794945
  0.0886488298399085  0.0944721180602404  0.4837254687511185
  -0.0339602743748077  0.6738981196024674  0.6553585977330473
  0.3137676839026262  0.2206579650146989  0.6007713396585307
  0.5443596967635471  0.3231480094898422  0.6717292766171801
  0.9094836846323384  -0.0215728338635676  0.4655562992834092
  0.7743193603303495  0.8320109098777131  0.7821212510410013
  0.7211826419431644  0.8872736780315673  0.6875779349327532
  0.1489195488941801  0.5033424752831864  0.5087003635484332
  0.6409681298918074  0.0597895755092284  0.6816228839415024
  0.5564923220683184  0.7097347835868358  0.7908051883829722
  0.7795490360868182  0.6973090529220852  0.4547530460239560
  0.5803592908920602  0.3763967362872530  0.5693088570417861
  0.7231058802470549  0.2290121682861958  0.3726394793980053
  0.2587864221325025  0.6083137443873144  0.8537952837904931
  1.0106515851527620  0.8028958452699508  0.8958678535254764
  0.8750353408267874  0.6372177572480324  0.8786477024308836
  0.7912639102905569  0.3224357047351218  0.5216399137936767
  0.9820117053231925  0.4125440106376630  0.6644656219960335
  0.4566949433530849  0.5125074568847550  0.8874045182302175
  0.3616688679129413  0.2038980878018533  0.7053403818753677
  0.2779117441295511  0.7850588763992769  0.8721569186821583
  0.3621049094942545  0.1653173555117336  0.9174888966649356
  0.7973817185492890  0.5345261956056803  0.6728888326515204
  0.9421840057177157  0.2576048359900422  0.6079064699745103
  0.7118734849889855  0.6606688928448439  0.5982373831411584
  0.0352367801709581  0.3752735678404513  0.7553614283513317
  0.6522225190134134  0.5238060056189656  0.7593042646137854
  0.2379325720852888  0.3077896442650693  0.5057191961270362
  -0.0925480473844575  0.8313450372073348  0.6147452151798334
  0.5235050488337548  0.5497836157174738  0.5863731399156829
  0.1695605720687163  0.0027052392190781  0.7914283297398804
  0.7966223311447941  0.0697205811463779  0.8886433611797567
  0.3427633504700805  0.5607492286921927  0.6598056307332941
  1.0912076385217746  0.0134042851985752  0.8888760215551679
  0.8822674398923330  0.3286357114846060  0.4246245002609066
  0.0550951745485457  0.9296389512032061  0.3928353772567567
  0.4366251200844974  0.4494920399366689  0.7342757630485379
  0.3882079264809879  0.5598734282438730  0.5035891070385591
  -0.2035920082655793  -0.1657903599157416  0.5194827972911401
  0.4944018154624159  0.0886093690514117  0.5906244735239868
  0.3900507753106469  0.0417871173123365  0.8298949342651019
  0.9549919693772151  0.2034794804130838  0.7570506898559151
  0.6946546816403973  0.1158079699891292  0.5302572110050583
  0.0172421973562567  -0.0103130337155214  0.6359677544168271
  0.3964929707494769  -0.0331007417044456  0.5198229745006204
  0.7864390581316975  0.8134030489449271  0.3743186452255837
  0.8281639806972392  0.1020667754299642  0.6301523595096097
  -0.5073060026994952  0.0112841073688537  0.3799385425963306
  0.0970187152651878  0.2418933739426464  0.4273196332381275
  0.1133948091586419  0.1289861865792068  0.5848726789696354
  0.2358835528408813  0.3203154876747544  0.8734179972192555
  0.2701087592996003  0.4263379178675900  0.3561468687770928
  0.0419804960246259  0.4486054766341681  0.3685140144694928
  0.2864883897159277  -0.0254283437256922  0.4412897830388208
