1-pos-1
1.000
11.0985002518  0.0000000000000000  0.0000000000000000
0.0000000000000000  14.4173002243  0.0000000000000000
0.0000000000000000  0.0000000000000000  26.7964000702
Pt  H  C  O  
96  166  6  81  
Direct
  0.0000000000000000  0.0000000000000000  0.0018699899937576
  0.1249999521128992  0.1666699702868031  0.0018699899937576
  0.2499999943280624  0.0000000000000000  0.0018699899937576
  0.3750000365432257  0.1666699702868031  0.0018699899937576
  0.4999999886561249  0.0000000000000000  0.0018699899937576
  0.6250000308712881  0.1666699702868031  0.0018699899937576
  0.7499999829841874  0.0000000000000000  0.0018699899937576
  0.8750000251993506  0.1666699702868031  0.0018699899937576
  0.0000000000000000  0.3333300219343480  0.0018699899937576
  0.1249999521128992  0.4999999922211510  0.0018699899937576
  0.2499999943280624  0.3333300219343480  0.0018699899937576
  0.3750000365432257  0.4999999922211510  0.0018699899937576
  0.4999999886561249  0.3333300219343480  0.0018699899937576
  0.6250000308712881  0.4999999922211510  0.0018699899937576
  0.7499999829841874  0.3333300219343480  0.0018699899937576
  0.8750000251993506  0.4999999922211510  0.0018699899937576
  0.0000000000000000  0.6666699625079541  0.0018699899937576
  0.1249999521128992  0.8333300141554991  0.0018699899937576
  0.2499999943280624  0.6666699625079541  0.0018699899937576
  0.3750000365432257  0.8333300141554991  0.0018699899937576
  0.4999999886561249  0.6666699625079541  0.0018699899937576
  0.6250000308712881  0.8333300141554991  0.0018699899937576
  0.7499999829841874  0.6666699625079541  0.0018699899937576
  0.8750000251993506  0.8333300141554991  0.0018699899937576
  0.0000000000000000  0.2222199683821562  0.0864100026098289
  0.1249999521128992  0.0555599860957249  0.0864100026098289
  0.2499999943280624  0.2222199683821562  0.0864100026098289
  0.3750000365432257  0.0555599860957249  0.0864100026098289
  0.4999999886561249  0.2222199683821562  0.0864100026098289
  0.6250000308712881  0.0555599860957249  0.0864100026098289
  0.7499999829841874  0.2222199683821562  0.0864100026098289
  0.8750000251993506  0.0555599860957249  0.0864100026098289
  0.0000000000000000  0.5555599783168760  0.0864100026098289
  0.1249999521128992  0.3888900080300730  0.0864100026098289
  0.2499999943280624  0.5555599783168760  0.0864100026098289
  0.3750000365432257  0.3888900080300730  0.0864100026098289
  0.4999999886561249  0.5555599783168760  0.0864100026098289
  0.6250000308712881  0.3888900080300730  0.0864100026098289
  0.7499999829841874  0.5555599783168760  0.0864100026098289
  0.8750000251993506  0.3888900080300730  0.0864100026098289
  0.0000000000000000  0.8888900002512240  0.0864100026098289
  0.1249999521128992  0.7222199606033073  0.0864100026098289
  0.2499999943280624  0.8888900002512240  0.0864100026098289
  0.3750000365432257  0.7222199606033073  0.0864100026098289
  0.4999999886561249  0.8888900002512240  0.0864100026098289
  0.6250000308712881  0.7222199606033073  0.0864100026098289
  0.7499999829841874  0.8888900002512240  0.0864100026098289
  0.8750000251993506  0.7222199606033073  0.0864100026098289
  0.2487706605991393  0.4489493822768933  0.1694576914064602
  0.5023283391191353  0.4496298218493082  0.1747379584434250
  0.1290831957198586  0.6201113019781120  0.1737749805459314
  0.8709183920081767  0.2861613992990364  0.1685351826539696
  -0.0043469421818660  0.4583199693076256  0.1743671667820836
  0.0054940664068653  0.1200401984612225  0.1757846301764386
  0.1251206441316053  0.9544029059967837  0.1708109251395364
  0.3816307659868786  0.9511966848332617  0.1715399353031712
  0.8732859838632778  0.6170702469457626  0.1707423330751104
  0.5034595419046616  0.1133809488786842  0.1670799219399244
  0.2514228437709355  0.1144056456090123  0.1718704287603818
  0.2599800871051956  0.7935637787521689  0.1717764009210676
  0.7581058217244631  0.1148214426796661  0.1713077361426982
  0.6233197442580608  0.2868821601445716  0.1715971842469092
  0.3728937816015989  0.6185417631429659  0.1709791207250700
  0.0021243591805277  0.7844699063169526  0.1730771519439172
  0.7539456361901598  0.7893413845623471  0.1723971968957665
  0.6286533394156948  0.9471371669422939  0.1714399143491259
  0.8821189812030851  0.9472607062854642  0.1712182380760281
  0.7492784569655074  0.4482713346502285  0.1753686347863564
  0.3775135915702191  0.2846025668928054  0.1731643739212678
  0.1252304338844868  0.2894287937187353  0.1678062114060099
  0.5061859242368233  0.7813370836527015  0.1720997842329042
  0.6198319938123443  0.6174454953845016  0.1708979448434478
  0.3691150773579153  0.5149136814524815  0.2600361928111783
  0.1233710702108541  0.5172865613722836  0.2576511245097435
  0.0048462410127239  0.0168161708383770  0.2603864474153570
  0.8781317769866575  0.1913806625840703  0.2580000808462478
  0.7501782452137782  0.3430242770463023  0.2608263309769219
  0.0021070958029854  0.6882442818160687  0.2565388615930114
  0.6219341492451215  0.8492948243570689  0.2576892860276087
  0.2471037535143735  0.6822449039329465  0.2571805775792989
  0.7475649318793666  0.6871518297650631  0.2543077175645833
  -0.0069750687609747  0.3510585907942235  0.2593970939712172
  0.1299625056336839  0.8491319588299960  0.2558518941962054
  0.6287682371920672  0.1820534192924763  0.2522511959887137
  0.2487851384741994  0.0138361738187141  0.2568165431166679
  0.3773994067099904  0.1830998194274039  0.2549599340173237
  0.8823721981816174  0.5195411473623300  0.2561897649578107
  0.5036867642899197  0.0122939317308006  0.2571009047092713
  0.3763663910826636  0.8512453685479018  0.2598119504844382
  0.4866916041312838  0.3500104879479964  0.2630806673072404
  0.1169057654694894  0.1910359301429977  0.2557023718017978
  0.7553439285132585  0.0183818938204061  0.2556771113750902
  0.8777365412520555  0.8521198523766251  0.2621727114424130
  0.2407500929746476  0.3468344883442132  0.2588526718711671
  0.6340636242413640  0.5164444813079774  0.2595827139532658
  0.4867392339180124  0.6763145533909016  0.2638087446851303
  0.6584678002250581  0.7800140512608358  0.3970609462960070
  0.7534510118917903  0.6962627258452186  0.4066183526128656
  0.0523770766330091  -0.0481537722665901  0.4067167323725757
  0.0135890569967361  -0.0054967001149376  0.4572979901478438
  0.7617912369041731  0.8524175534602695  0.7692421383655715
  0.6291210670529634  0.8728168291238432  0.7580479264671759
  0.6820081896355668  0.5443953788637343  0.8578654466487232
  0.7298725450572684  0.5158838392477963  0.9129618362358406
  0.3892735132838608  -0.0094811895412712  0.8141552615032729
  0.3226405956263547  -0.0527019744528412  0.8608396305984780
  0.0647269580034916  0.5429048347004256  0.9134051863078233
  0.0994946188176109  0.4365868030195377  0.9042691266707582
  0.1471813557002959  0.7345201016311752  0.7881710203225206
  0.0801464614154274  0.8241162805206744  0.7608873935859184
  0.5786012617207913  0.1200055797190007  0.3464346294196343
  0.4578370314021386  0.1552628295641034  0.3722356334122889
  0.5550547678098130  0.3084492060520932  0.7921264879496022
  0.5881689628507505  0.2836450095634012  0.8416410938453223
  0.6971457880487173  0.2225599909677813  0.7808420736809752
  0.7419243895196141  0.1603380624413845  0.7319555301091460
  -0.1473446406359976  0.1946141633348854  0.8823201145437868
  -0.2101441740042075  0.2664107259503565  0.9221576670285759
  0.4870414219095346  0.5324357818228554  0.6606914546438872
  0.3541260452431465  0.5756850609249888  0.6560550671860748
  0.4854025982227892  0.3988016892309088  0.5223598021275373
  0.5102203486170668  0.3704747697282091  0.4655439599580098
  0.4814950871612863  0.8982701806661441  0.3791470679040421
  0.5579002455395520  0.9217962799651178  0.4252533747610579
  0.5128066167838261  0.7899641922142864  0.5907061363404199
  0.5982581391411993  0.8548568991666677  0.6296284066068609
  0.2588127410308557  0.2442561327511635  0.3549931038863237
  0.2415561991598999  0.1392242858352114  0.3715056854099916
  0.6257080482810031  0.5868088019239931  0.4576105548161596
  0.5243165746611782  0.5150057414414774  0.4804391040017754
  0.0475333910286158  0.3157012585219290  0.6965995752339385
  0.1420709788373679  0.3833873188742847  0.6954228259721947
  0.9468958400208700  0.4946535682512818  0.7786680410292988
  0.0478352970180720  0.4373622487428054  0.7591338685386396
  0.9621385608896256  0.1042452085562345  0.3918255153003332
  0.9936142349333635  0.1585473105878242  0.3409572405944381
  0.4692124314504040  1.2277096801082532  0.9213748169164323
  0.5015597256843052  0.1451870972397421  0.8870598864634203
  0.3291266488918241  0.4621859002192992  0.8804045927324415
  0.4094423214310423  0.3861985371377212  0.9062406885470401
  0.4809224050460638  -0.0122003534547704  0.8752040469115506
  0.5446503572065630  0.0182882488259207  0.9275000535814324
  0.1443670306301195  0.8422891796851377  0.5407355830537073
  0.0393195540567947  0.7673237326676483  0.5324262900846261
  0.0750446801913546  0.5053170559437193  0.4129345041950411
  0.2093392273630114  0.4635722482934214  0.4001060750926450
  0.1784074250553688  0.6246518224834466  0.4204764008143839
  0.2237268167919617  0.7261638214729148  0.4478034176891000
  0.9054225511568771  0.1636744532393597  0.6835731892871117
  0.8159656174924410  0.2234137279371520  0.6472090597642193
  -0.0261485914777479  0.3315867561211246  0.8773770099829878
  0.0309247104575535  0.3926700945894236  0.8378247453756738
  0.6719186402136221  0.5470492569064146  0.6348680465746243
  0.5700764418844665  0.5936507764729964  0.5975424015111179
  0.4594894422670233  0.9125468862904796  0.5564883719355778
  0.4928381853676934  0.9805713657382341  0.5131341046475640
  0.2494307185739825  0.6952986323336905  0.5998841434143443
  0.2267570772178734  0.5883254522718263  0.5853831265470774
  0.4514587807652096  0.0990686904953696  0.7113624710767996
  0.5285212733989587  0.0747513316940950  0.6581988175573750
  0.8474694062807769  0.1775276546219158  0.5153274921938772
  0.9618354973563834  0.2432720476950663  0.5198240557503377
  0.8269411563252886  0.0709301157907774  0.3482605025022806
  0.8020148802768530  0.9629039215609476  0.3485656034254860
  0.8436008680976079  0.6204511247482408  0.7735393853949610
  0.7460118223051964  0.5443341825103065  0.7712867243792327
  0.8245075328277698  0.5827058331448386  0.7008146461577976
  0.8716094344486862  0.5536895207152130  0.6477791780211484
  0.1802326331321731  0.4387485071330076  0.4699768308506974
  0.2967152093965049  0.3866941509481319  0.4916066382159250
  0.7298008584886375  0.8806100325635986  0.6941006921367845
  0.8030294721806711  0.8329284672424202  0.6513493692091205
  0.5514863393103338  0.5422800666259689  0.7841483706972870
  0.6112210847316782  0.4459403533446331  0.8081662286376802
  0.6907793633249318  0.0482314719040098  0.4748711897629548
  0.5855140156658620  0.0615941968596354  0.4333509796121405
  0.0565995793709263  1.0076420057351860  0.5330284943380976
  0.9811675777575352  0.9131019162319741  0.5435184954301698
  0.6899220951099352  0.2964091322449718  0.4330066624435720
  0.5726096359072751  0.2377998669210941  0.4311455772317767
  0.3476313795077189  0.6761662604396044  0.9097029914891123
  0.2501440631719354  0.7456933499712832  0.9011373045349436
  0.6699264213283350  0.8695619112772338  0.8811820332933162
  0.7283737639406664  0.7932064560135248  0.9149952080565799
  0.1922821116442190  0.6049222941546565  0.8449226376597764
  0.1366056971394950  0.5671718367158454  0.7984868411408332
  0.8680679206938322  0.0370247920273102  0.5371047754547343
  0.7407974681503984  0.0715704984738292  0.5631323730825076
  0.3192357867834778  0.3195340564133722  0.6706410736935184
  0.3250908488392237  0.4250672201908417  0.6854872116097236
  0.3625353152960857  0.6027840266690394  0.7817542397755241
  0.4320376400065704  0.6010832742245096  0.7309425024737590
  0.4011457948453835  0.1691643862759621  0.7870404380308459
  0.5130641114394248  0.1108555765181479  0.7827966476148913
  0.5649210109521907  0.6233480662456236  0.9045905408449546
  0.5514578876193093  0.7378863599905731  0.9131330472077615
  0.2993741209999186  0.1881939889152676  0.8777381163582714
  0.1790593065200582  0.2254833113012904  0.9057223990953369
  0.8669755369009829  0.4214965320731571  0.6094943238611716
  0.9802952788360273  0.4298278695032779  0.6453453216886132
  0.0574096554979726  0.1756306628707208  0.7351007787425149
  0.1085538991905328  0.1417561532536671  0.6859336867768601
  0.0253076819595013  0.5132789558635480  0.5772220628733341
  0.1394057888991866  0.4958621174962113  0.5446281628228831
  0.3507389263489605  0.3282321892224980  0.7600400134251314
  0.3645158605861067  0.3354955579996495  0.8202285000604543
  0.8182352219640825  0.2882554694113529  0.5698543299919476
  0.7029534463572845  0.3234356104855550  0.5929317125985653
  0.3201658841358949  0.2419536852482634  0.6006335651444046
  0.3955944689543013  0.1979461979081151  0.6426196264866960
  0.0241615985508050  0.6210919237575053  0.5204792214984982
  1.0564714978673222  0.6843970275217791  0.4729085630943641
  0.5104914122231168  0.6399607667078302  0.5237756517043688
  0.4113776427368662  0.6530761498696025  0.5711258417364633
  0.4329757288351319  0.8307284481884687  0.7908931620732375
  0.4744221554300582  0.7397895367832540  0.7693165079859228
  1.0434181147242707  0.8282738463317109  0.8966116075688475
  0.1061145254386054  0.8474339798034694  0.8482679285259062
  0.3901367542788273  0.8449684541192578  0.6516710467321241
  0.3553845450929559  0.8029623540812457  0.7077848777564710
  0.8317257625599362  0.7528515921660358  0.8320627364753921
  0.9443011964071683  0.7514341696817932  0.7982208300355607
  0.1585204564566877  0.3254402722565076  0.5315790286674013
  0.1606170863771336  0.2165801482608445  0.5329241784041410
  0.1346517755277454  0.8296074638190954  0.3419924824525730
  0.1085746649962517  0.7741993294824335  0.3940568768355901
  0.5757632446567387  0.4442743687548472  0.5936448281010186
  0.5120498798635708  0.3440581052504815  0.6028540171358708
  0.3299735564997665  0.8506357612800177  0.5020558051214223
  0.2953895375880447  0.7462089595780993  0.5207485751908260
  0.8164597805032595  0.8080718546710884  0.3584234137846381
  0.9643962181794865  0.8398999768896004  0.3584022950560582
  0.6880224121057761  -0.0224726132950964  0.6297605307313972
  0.7311735710402751  0.0805258453204173  0.6506156230063285
  0.2164354393748305  0.0696090618414466  0.9077048050327329
  0.1725606706175810  0.9658155944710565  0.9109037415494079
  0.7759471494721365  0.0410422556299877  0.8775211052043564
  0.7570256543389592  0.0860180097526000  0.8235747030603012
  0.8916024519975223  0.6876124958118730  0.6420689070556778
  0.9661784681998703  0.7603922641163058  0.6064316243237338
  0.0080122447702407  0.8209220521017933  0.6768375292048935
  0.1523478711752765  0.8340001959821712  0.6846142590474870
  0.8289444313710673  0.5584494509887280  0.4325123388566238
  0.8736516499269733  0.6398470680281538  0.4669225091102551
  0.8966550406020867  0.4745609211749763  0.3615244553119443
  0.8872866553841708  0.4008836885465232  0.4052353822883849
  -0.0340230127974956  0.1174188851701043  0.8180334959350528
  0.0974158731784190  0.1431476339114804  0.8260855540262421
  0.8991783262230839  0.2444987192580398  0.3997587015097900
  0.8709878884881064  0.2777560523606582  0.4555500954389539
  0.2974164530171228  0.0186314907105323  0.5474568435934876
  0.1909595554008545  0.0454878407466778  0.5890740273711021
  0.2842778625146491  0.0392072201179014  0.6639988914215073
  0.1566271438627999  0.0007693322000263  0.6711693941978738
  0.8856833977010334  0.6125359318185922  0.8801045580793189
  0.9740096534706824  0.6670409828596692  0.9164769409832410
  0.5080069821763158  0.3441375655434751  0.3594911880201713
  0.6826951974859079  0.4248174788353881  0.3530744400223229
  0.7092132270415019  0.5880404375439596  0.3544923217004761
  0.3223673783959899  0.5927732224924893  0.3635199048036640
  0.5281281172876822  0.6955661748860402  0.3585765303894526
  0.4479070310327530  0.5681364169828610  0.4057560380392861
  0.5038553998854989  0.4054570090416370  0.3353833814189998
  0.6099050378633069  0.4667171290196742  0.3362236606334097
  0.3999443443523011  0.4634527225865838  0.3535620652020399
  0.6223748459508954  0.5659302943797961  0.3388397140180566
  0.4139270158555820  0.5670352875929602  0.3662595638738255
  0.5106938021090508  0.6266341352851064  0.3394488277369607
  0.7280286019896740  0.7491652406873851  0.3846989722199300
  0.0352077695575694  0.0088155131697808  0.4223056819331754
  0.7087980282312615  0.8994236094663554  0.7568861096366152
  0.7203927966036034  0.5675656014229458  0.8878704455252010
  0.3911417234590723  -0.0635284597289761  0.8376434794225130
  0.1327957256441894  0.5000437220242482  0.9224916320976357
  0.0901503041131823  0.7920756486261250  0.7932287235679175
  0.5332359946687549  0.1264308022820897  0.3783646483683928
  0.6258937495427268  0.3143495699188746  0.8122134937223886
  0.7050012396252365  0.1552030361571139  0.7664513078359451
  -0.1412254562814281  0.2540344668849278  0.8995330218257968
  0.4051998730072237  0.5359144541969986  0.6788155080065662
  0.4584084203966985  0.4103586827531193  0.4879394384934786
  0.5228701408605936  0.8673904503439841  0.4062904743502265
  0.5216605470149906  0.8494264337964563  0.6080924970410916
  0.2924694257923321  0.1933743732963959  0.3759394726384532
  0.5435253999495702  0.5821524062704678  0.4680697548828016
  0.0544880766121460  0.3838928898263076  0.6998175912425850
  1.0290126696215351  0.4728967201438040  0.7895302872913889
  0.9361516142971593  0.1514456122804373  0.3672736669260568
  0.4646577813217254  1.2095237258435234  0.8852567328766169
  0.3780624728210000  0.4066412732959960  0.8751293311775432
  0.5381515411175782  0.0323744611847162  0.8916588809095829
  0.0661928019491510  0.8158189598407335  0.5545094449356419
  0.1626356499390317  0.5137558199846414  0.4210102699558552
  0.1567646529464937  0.6926357539928975  0.4293261428349071
  0.8187709634124856  0.1689231022528870  0.6717885849233644
  0.0534951276776075  0.3605112460680798  0.8693877683520539
  0.5882706581225794  0.5391201087287745  0.6218169963781869
  0.4251753247592786  0.9472941399375697  0.5287298114815112
  0.2864053169872632  0.6364684743842550  0.5949968239215425
  0.4496293836719665  0.0880334423334535  0.6749191808832781
  0.8807340444772866  0.2410504458138753  0.5085929395253382
  0.7669205867990626  0.0232738913582756  0.3368357952506354
  0.8227403574297406  0.5611399128086616  0.7577845290450780
  0.8026891854289195  0.5918417834095072  0.6641078495499256
  0.2186121299683260  0.4105616213237588  0.5017944944049957
  0.7458394250392064  0.8822577401323125  0.6587075609096270
  0.6250339214232967  0.5111306064071224  0.7968282334105572
  0.6158855955958018  0.0225375267869041  0.4601457151668795
  0.9802462338761092  0.9756405833036572  0.5262251576651712
  0.6045043473429567  0.3006271710909342  0.4371884163734447
  0.2591527593499424  0.6797461296451446  0.9060128044923161
  0.6892397810739670  0.8046049252028545  0.8811097230130203
  0.1975785153714222  0.6155147536529060  0.8082746248286755
  0.7867883002105425  0.0732066115971615  0.5317444965320541
  0.2921478731123274  0.3645673808013661  0.6968152787532492
  0.4477417257520054  0.6140381230584957  0.7687404182141788
  0.4270047850232189  0.1075641746841195  0.7862188404713856
  0.5121495678822128  0.6744385385560011  0.9162509595460279
  0.2107461477617804  0.1681353485109723  0.8841938781601106
  0.9402989263713771  0.4596125883840175  0.6153092074422419
  0.0590840474318725  0.1938947639578426  0.7008802471637312
  0.0974483910494657  0.5457295875505714  0.5616510282340947
  0.3842088617701678  0.2974179155174104  0.7899391644491899
  0.7917181109560192  0.3134860628123904  0.6020043838478039
  0.3769557297547008  0.2590451642815347  0.6264777042371835
  0.9973816269729519  0.6795789513550000  0.5023352078912118
  0.4989700380735545  0.6592088570356067  0.5595094128921213
  0.4711356875855326  0.8066282109530419  0.7608159726041827
  0.1232237225546035  0.8544302713858553  0.8845158228869173
  0.3206756074202713  0.8241933409607509  0.6751574452838421
  0.8549007755044361  0.7373816664913189  0.7995795382614648
  0.1182222690662371  0.2703446594828222  0.5485121656041276
  0.0922215610018120  0.8326570904909389  0.3762617607658650
  0.5698015940554092  0.3792466477728130  0.5804122557117769
  0.2722833369409430  0.7986688959485179  0.4975414758726018
  0.8808548245799662  0.8509555442996033  0.3448635537195511
  0.6687749709512512  0.0468899578411063  0.6286826124653491
  0.2412895897682823  1.0077023526507989  0.9204777838397120
  0.8131982376480319  0.0830352120143995  0.8531279426307421
  0.9214739791298689  0.7528604067705750  0.6381900326237502
  0.0709219658099607  0.8512700742552435  0.6987684601642927
  0.8007867867335122  0.6143796021512110  0.4526485245527038
  0.9110390219309252  0.4706454560378313  0.3985604613426078
  0.0383628893760620  0.1410776106730312  0.7991993669595993
  0.8597068459454715  0.2949192169511365  0.4195384504727650
  0.2086157066243695  0.0326809462014152  0.5533365578792590
  0.1975224888015351  0.0530100427548742  0.6564103722895609
  0.9699035411072026  0.6268761469409446  0.8854937162655558
  0.3077265051055967  0.4208887697831528  0.3695369111581597
