1-pos-1
1.000
11.0985002518  0.0000000000000000  0.0000000000000000
0.0000000000000000  14.4173002243  0.0000000000000000
0.0000000000000000  0.0000000000000000  26.7964000702
Pt  H  C  O  
96  166  6  81  
Direct
  0.0000000000000000  0.0000000000000000  0.0018699899937576
  0.1249999521128992  0.1666699702868031  0.0018699899937576
  0.2499999943280624  0.0000000000000000  0.0018699899937576
  0.3750000365432257  0.1666699702868031  0.0018699899937576
  0.4999999886561249  0.0000000000000000  0.0018699899937576
  0.6250000308712881  0.1666699702868031  0.0018699899937576
  0.7499999829841874  0.0000000000000000  0.0018699899937576
  0.8750000251993506  0.1666699702868031  0.0018699899937576
  0.0000000000000000  0.3333300219343480  0.0018699899937576
  0.1249999521128992  0.4999999922211510  0.0018699899937576
  0.2499999943280624  0.3333300219343480  0.0018699899937576
  0.3750000365432257  0.4999999922211510  0.0018699899937576
  0.4999999886561249  0.3333300219343480  0.0018699899937576
  0.6250000308712881  0.4999999922211510  0.0018699899937576
  0.7499999829841874  0.3333300219343480  0.0018699899937576
  0.8750000251993506  0.4999999922211510  0.0018699899937576
  0.0000000000000000  0.6666699625079541  0.0018699899937576
  0.1249999521128992  0.8333300141554991  0.0018699899937576
  0.2499999943280624  0.6666699625079541  0.0018699899937576
  0.3750000365432257  0.8333300141554991  0.0018699899937576
  0.4999999886561249  0.6666699625079541  0.0018699899937576
  0.6250000308712881  0.8333300141554991  0.0018699899937576
  0.7499999829841874  0.6666699625079541  0.0018699899937576
  0.8750000251993506  0.8333300141554991  0.0018699899937576
  0.0000000000000000  0.2222199683821562  0.0864100026098289
  0.1249999521128992  0.0555599860957249  0.0864100026098289
  0.2499999943280624  0.2222199683821562  0.0864100026098289
  0.3750000365432257  0.0555599860957249  0.0864100026098289
  0.4999999886561249  0.2222199683821562  0.0864100026098289
  0.6250000308712881  0.0555599860957249  0.0864100026098289
  0.7499999829841874  0.2222199683821562  0.0864100026098289
  0.8750000251993506  0.0555599860957249  0.0864100026098289
  0.0000000000000000  0.5555599783168760  0.0864100026098289
  0.1249999521128992  0.3888900080300730  0.0864100026098289
  0.2499999943280624  0.5555599783168760  0.0864100026098289
  0.3750000365432257  0.3888900080300730  0.0864100026098289
  0.4999999886561249  0.5555599783168760  0.0864100026098289
  0.6250000308712881  0.3888900080300730  0.0864100026098289
  0.7499999829841874  0.5555599783168760  0.0864100026098289
  0.8750000251993506  0.3888900080300730  0.0864100026098289
  0.0000000000000000  0.8888900002512240  0.0864100026098289
  0.1249999521128992  0.7222199606033073  0.0864100026098289
  0.2499999943280624  0.8888900002512240  0.0864100026098289
  0.3750000365432257  0.7222199606033073  0.0864100026098289
  0.4999999886561249  0.8888900002512240  0.0864100026098289
  0.6250000308712881  0.7222199606033073  0.0864100026098289
  0.7499999829841874  0.8888900002512240  0.0864100026098289
  0.8750000251993506  0.7222199606033073  0.0864100026098289
  0.2553772100820848  0.4469875692702995  0.1686713996342519
  0.5019930402214851  0.4465753982391390  0.1741146875877785
  0.1261332519475287  0.6196013884238664  0.1695705905306737
  0.8797829917259666  0.2816183144647758  0.1702322236139816
  0.0055370878862694  0.4506007596866438  0.1736590735960477
  0.0044884201261266  0.1196057500345023  0.1722609265799616
  0.1366144492319216  0.9495686182580483  0.1725226492397826
  0.3777023131138945  0.9510373393133476  0.1702284332690198
  0.8784082511615805  0.6168756999878465  0.1712229900091111
  0.5038754794723750  0.1140746067372577  0.1735660049042284
  0.2548274095359245  0.1173279909749628  0.1711169997457713
  0.2456007715959567  0.7812715262123141  0.1723177499628045
  0.7524227927323458  0.1098672743340827  0.1769784888819435
  0.6318330625944438  0.2777541278949421  0.1743774333850332
  0.3740900799030606  0.6197077765462011  0.1707123717520261
  0.0039510982299512  0.7818998511454893  0.1700197356012231
  0.7549499583009956  0.7736329355825385  0.1682632487792360
  0.6311687323126289  0.9445023542097426  0.1721919407350288
  0.8789575166895074  0.9471094599726265  0.1735368719162914
  0.7448973060715285  0.4458046321922983  0.1722858838540077
  0.3867674047855086  0.2834981500635601  0.1715991849746137
  0.1342542733968350  0.2841382420611205  0.1735128559104729
  0.4995144868245485  0.7819991007815333  0.1756010104294909
  0.6285279177399351  0.6154365494619368  0.1732707582673939
  0.3795436007686553  0.5151481143662321  0.2537962123973185
  0.1291234460410611  0.5201686264852765  0.2513019468868432
  0.0192585918953630  0.0181202987824084  0.2546346200842147
  0.8933960923496745  0.1811600302113298  0.2588111235065703
  0.7619125815786287  0.3509409869451240  0.2587194455836566
  0.0085925972371387  0.6861507383834968  0.2600650551956021
  0.6352140732128753  0.8375882085639451  0.2563017576431019
  0.2498147510921877  0.6791079921119819  0.2604301737590796
  0.7660911427578727  0.6753772109002998  0.2545384347946515
  0.0116602428133487  0.3444719979077172  0.2569669509247854
  0.1277666119501164  0.8503350942943435  0.2630215110364038
  0.6445378715957438  0.1828753353249958  0.2657705697423126
  0.2678963641792760  0.0119881858538735  0.2600506488835980
  0.3826468821687178  0.1733447413537052  0.2577814849645377
  0.8883060665697645  0.5100162568652490  0.2563507519780335
  0.5056291387829511  0.0113188834775703  0.2581647605938422
  0.3888987302135694  0.8407525295387630  0.2546021677810052
  0.5065192143405380  0.3401031481494360  0.2632617939431797
  0.1397322265455174  0.1762132826170892  0.2615501788389178
  0.7665966305961137  0.0186151469224212  0.2646528972967028
  0.8871624820572587  0.8477105576882302  0.2586697683547559
  0.2609382584129158  0.3395362946419933  0.2597908434663866
  0.6368562984493025  0.5123034886206382  0.2634484604986460
  0.5064235821852090  0.6753191587069640  0.2701007272857148
  0.7125594792339075  0.7747940656512448  0.3975973758858901
  0.7953496208794851  0.6788438057011601  0.4110369093775734
  0.1340941228936433  -0.0380150399570812  0.4224268616510291
  0.1092309108704470  0.0166907243004079  0.4669192207469015
  0.6945127457423698  0.7564016375492715  0.7646981320706584
  0.5750806903991244  0.7989736625436251  0.7544959109221533
  0.6102978198429525  0.5050177716371660  0.8650846223847629
  0.6785524725089415  0.5122116839637740  0.9208513054834321
  0.4425892665275508  0.0060251357083894  0.8015407476501261
  0.4083967191481467  -0.0381552057418371  0.8558137665888654
  0.0408162403498194  0.5286322814554584  0.9115086746209226
  0.0845670665230448  0.4193725151612816  0.9105448296293440
  0.0143594696296153  0.6722537216478460  0.8218389015430024
  0.0438597279682949  0.7483665705327196  0.7815670644091740
  0.5670326184908939  0.0280270939852485  0.3480542304177648
  0.4516817655238574  0.0875422081918447  0.3637219834330998
  0.6255657984847079  0.2848852502687909  0.7879864894718450
  0.7219191870361533  0.2845313661767193  0.8346294802924650
  0.7721051318722285  0.1831469015294230  0.7750176371114688
  0.7896877640813281  0.1044038109411766  0.7372967137578842
  -0.1715116235809680  0.1926867003586228  0.8870525530641769
  -0.2264181141584826  0.2736544202603340  0.9228650097145465
  0.4594222204547898  0.5278547662185136  0.6707365202271311
  0.3339094107961986  0.5712303264739610  0.6628337635305142
  0.5441764886224589  0.3587622951266615  0.5126653459498623
  0.5553274275053884  0.3195174625784463  0.4522616755478807
  0.5775862005013105  0.8824287352466297  0.3694319914565342
  0.5658921992619133  0.8770004562080832  0.4230873459643560
  0.4925149359989853  0.7348219235834339  0.5859394792758373
  0.5877828671078320  0.8009557329351286  0.6168353419077995
  0.2616882816603046  0.1698674892107900  0.3618900978861084
  0.2910780492324681  0.1054266834950230  0.4066452059438397
  0.6483080161603858  0.5509976224959758  0.4769221353062377
  0.5517699156700757  0.4801216446497413  0.4676583260128370
  0.1043765819451256  0.2446384628139522  0.7084009899154456
  0.1820948204846172  0.3276595936275137  0.7107567862513201
  0.9493399563415054  0.4408989791712983  0.7851074512578352
  0.0365702967330359  0.3603410495984340  0.7727860670631286
  1.0512911708595649  0.0876778745072831  0.3968718934871696
  1.0259268549237841  0.1379768814030218  0.3453588213027052
  0.5020391140592468  1.2424351803820264  0.9109433529933789
  0.5351956244211147  0.1659425985919052  0.8750704377666423
  0.2497426358800562  0.3208547439556839  0.8661603879586639
  0.2880334848198557  0.4287997910926600  0.8655548507089776
  0.5724686408660986  0.0117103012681556  0.8603907866131482
  0.6172353458557588  0.0356130940614389  0.9156904751876569
  0.1395584368030982  0.7729076207567867  0.5636726896422720
  0.0528766619980769  0.6876071274003954  0.5551764053987333
  0.0311314866298231  0.4818887937278369  0.3878764819218653
  0.1586378104838491  0.4941440105889104  0.3674631645558391
  0.1262810539354355  0.6361392201115308  0.4079487387097520
  0.2047360787806870  0.7094725603382953  0.4451856907475618
  0.9421669391775792  0.1162023201317736  0.6882158470722652
  0.8310489610165221  0.1529016557333314  0.6551842917483716
  -0.0320282071392799  0.3177263081460460  0.9112220411223976
  0.0157218514791402  0.3436616482362643  0.8582564298021524
  0.6842155623115305  0.5174646994466834  0.6415454446068691
  0.6041164918757911  0.5763624886297638  0.6010114630625381
  0.4711327421695522  0.8797339166539978  0.5499143423182223
  0.4972802264256286  0.9456426731976409  0.5027653198790089
  0.1939926215572066  0.6297061261995599  0.6043159230746302
  0.2068706514673127  0.5180323664628842  0.5916447804132844
  0.5018644172753560  0.0976615765569495  0.6966715315749004
  0.5677498710492933  0.0519025283970135  0.6509767312214115
  0.8889107555860946  0.1243724217366127  0.5258216853938333
  1.0143697071029154  0.1855672803005597  0.5363896121772121
  0.8361024878920027  0.0606501689634097  0.3614089310104750
  0.8151835382832621  0.9607788044777673  0.3538217457293410
  0.7823189955950872  0.5293977968729286  0.7856816623294602
  0.7575968550738488  0.4199764623611411  0.7868883104581377
  0.8226582953241106  0.5043881495956759  0.7084412708485999
  0.8863577252615330  0.4754033760389964  0.6596758158256616
  0.1988124926917164  0.3382726615542052  0.4413052918384697
  0.3213412306875954  0.3496990116916837  0.4716103712287080
  0.6960945666732791  0.8020483885263223  0.6872370428063456
  0.7829380527238994  0.7811466393907880  0.6432270622003500
  0.4773780630712441  0.5231334070915620  0.8036957963040018
  0.5098983203502818  0.4172771282559661  0.8095468924956265
  0.6746404590192847  -0.0091970021180882  0.4890896833815701
  0.5921252998155471  0.0293687496558017  0.4366392583573884
  0.1113314401555835  0.9421798602629520  0.5373272551678444
  1.0024304318590815  0.8678750721588385  0.5264526339561667
  0.6785091348426724  0.2248271767578717  0.4131218606379530
  0.5519105922988613  0.1808110050109307  0.4075050797977767
  0.3481842643895303  0.6530283973438668  0.9151622570179430
  0.2379627192576463  0.7186110128328848  0.9014223994461997
  0.5737912415388895  0.8527455063104176  0.8642719336339251
  0.6658993315607107  0.8534036905024902  0.9035756328562415
  0.1648357010311637  0.5300438210490988  0.8600906983744694
  0.1316758298638578  0.5070345851700486  0.8047831919886336
  0.9097207938399156  -0.0100990235713198  0.5262166760109414
  0.8021359594469671  0.0157987527037892  0.5628752697110864
  0.3275327210458405  0.3238608924388063  0.6690260929279443
  0.3439202353922498  0.4291571007983507  0.6950026431614252
  0.2929294384322537  0.5953044982745175  0.8034145222156819
  0.3608714612634649  0.5899508892493057  0.7513805564535939
  0.4693327211985422  0.1615276102716429  0.7728487224793636
  0.5795491419623846  0.0882820257744752  0.7764813393773421
  0.5508331725818990  0.6013538148971262  0.9086119248262992
  0.5399842077066249  0.7211251271355686  0.9093024116025650
  0.3329749920581067  0.1687341402934622  0.8827904397504183
  0.1972205583222835  0.1895587943152992  0.9003943591039212
  0.9050695630944257  0.3281781586142786  0.6218748445330113
  1.0119639440363544  0.3523059427755389  0.6550425025270565
  0.0718442874180843  0.1257426224949144  0.7379966879204906
  0.1503322718246911  0.0759237027855641  0.6912850132171408
  0.0460932594579193  0.4105489192368805  0.5696360114907806
  0.1507784301783116  0.4094808963157758  0.5223587198440991
  0.4022179547615911  0.3070390695366772  0.7479295362696238
  0.4148969918483522  0.3078141733373989  0.8105977396365198
  0.8479605246279713  0.2242224874565207  0.5727672366844703
  0.7303937890513893  0.2683489957210657  0.5995545605757218
  0.3393472274949199  0.2237073463424110  0.5951511847569221
  0.4444379272956281  0.1795731865204813  0.6340447482158074
  0.0356105410040335  0.5429437848569225  0.5263962003271703
  1.0534793069454349  0.6299771795132320  0.4851043943307933
  0.4923731249196240  0.6051806063380792  0.5128550349747569
  0.3857970564451323  0.5993360784105843  0.5589862187704008
  0.4176091879214314  0.8427583104651573  0.7999746820521330
  0.3893425925182263  0.7333928580247330  0.7975475000153814
  1.0680760312527326  0.7993857679938527  0.9139298845905466
  0.0926968582023635  0.7829843418931848  0.8600415707305862
  0.3850642833122326  0.8294356148347882  0.6618037901114094
  0.3706996821874866  0.8242182006983177  0.7228865551101402
  0.7148974483658893  0.6539624440509821  0.8320168074104142
  0.8240839374145753  0.6834563330096998  0.7960279650743696
  0.2502043974770043  0.2232705479819672  0.5260508427464596
  0.2239525900534971  0.1223137270893323  0.5443704554262958
  0.1546173683080909  0.8629218280431589  0.3563341606143117
  0.1118376134377879  0.8080128713394820  0.3995083305800224
  0.5726012443410377  0.3891543421176421  0.5987065786848531
  0.5043727555704770  0.2918959438055489  0.5939822120285728
  0.3330774942317508  0.8164886149182998  0.5049231345760772
  0.3360083170602429  0.7149304933337789  0.5132046086031345
  0.8509727695116508  0.8020908423276913  0.3590697744993097
  0.9756797063588637  0.8550427342577261  0.3539900050547798
  0.6897276888342179  -0.0544577213545624  0.6380565465737349
  0.7656503348388741  0.0342649224760793  0.6487094191257258
  0.2321574786631299  0.0425060260080527  0.9016534010204330
  0.1766887465161755  0.9363222799749545  0.9124178452496703
  0.9134357049328188  0.0483414913372825  0.9001594495196670
  0.8167840649307359  0.0565116443317707  0.8574173272756528
  0.8744004766613470  0.6456721462184831  0.6537020789923316
  0.9722993326012549  0.7153717102260566  0.6304214062801128
  0.0496339276210458  0.8357573691634094  0.7050871558195460
  0.1852494193047886  0.8091314853690919  0.7053317291795059
  0.8286041370507257  0.5280601627597473  0.4315454398503348
  0.8780865636795786  0.5939760367871358  0.4746186000426093
  0.8984767896709955  0.3731842480835366  0.3524628284455042
  0.8938046878172706  0.3306375468179200  0.4077924744619788
  0.0424554351768006  0.0841565367179492  0.8186948460363190
  0.1424817595731939  0.1648014892410525  0.8239599333700800
  0.9148742357016414  0.2000687538321723  0.4038921224510297
  0.8977150438847908  0.2259330523276353  0.4638246576121983
  0.2712692538716405  -0.0333246574272075  0.5391653333003908
  0.2287924001342590  -0.0167978398335503  0.5979794028982194
  0.3352164888041165  0.0431770137553769  0.6594184582297929
  0.2928781429160052  -0.0570380159326901  0.6754156408243578
  0.8500225260768868  0.5595496506067720  0.8808779235480276
  0.9155517462417507  0.6296883482386372  0.9193390505464315
  0.4855606697243612  0.3509604619990961  0.3548328169228231
  0.6913381735839120  0.4205348010219697  0.3503270750178024
  0.7099783932808433  0.5916435380199034  0.3494363290169415
  0.3171438071490011  0.6149918724905027  0.3562024387938151
  0.5349815689229752  0.6892002120169791  0.3603832564822549
  0.4178030823892583  0.5799759972540894  0.4034766718617402
  0.4879999732686044  0.4204159974059423  0.3400264636566905
  0.6101540659605538  0.4610548990161394  0.3389548348101002
  0.3854443693783040  0.4750283052063251  0.3494707672063095
  0.6264745616122633  0.5594353975653306  0.3378444059121122
  0.4049905129182672  0.5792242149972608  0.3625784044030913
  0.5195719001911786  0.6195145740702407  0.3424411570756009
  0.7813024624199703  0.7343474600366132  0.3900784201578009
  0.1421434051275659  0.0271442220534740  0.4348811426449577
  0.6608168204718047  0.8084329546633896  0.7453745717213769
  0.6584405535887434  0.5449653489047376  0.8894810263751263
  0.4638049484447370  -0.0467410624746644  0.8281148087827597
  0.1075788489175696  0.4897263920189196  0.9216070202640351
  -0.0158884195070772  0.7330542175147871  0.8089300082068156
  0.5237783259100435  0.0531487200223858  0.3768078499517879
  0.6994164058104202  0.3083821018380622  0.8024798528147778
  0.7526721822027430  0.1174941951576267  0.7708992329821496
  -0.1928408673823192  0.2587563025366026  0.8900597112865088
  0.3884158629181318  0.5493961213937735  0.6897614408121518
  0.5132908701133809  0.3608970888551104  0.4777667633100257
  0.5571243607078511  0.8376706432210244  0.3943117856398364
  0.5063909300257479  0.7944144008318375  0.5991444892911009
  0.3282231424474850  0.1492854817694899  0.3828602433507191
  0.5613302653653232  0.5472621685231698  0.4705393451421884
  0.0981732536631053  0.3104744025483683  0.7143342424636793
  1.0210471672568655  0.4057460245948386  0.7989511755688685
  0.9843290789877854  0.1146227493074374  0.3763863419816721
  0.4693300927082653  1.2135837574506436  0.8807734348669860
  0.3048350581738552  0.3656728477925534  0.8541240507172788
  0.6218865057628488  0.0538083190979444  0.8807910367985426
  0.0921611238810496  0.7248113364794252  0.5810421458782090
  0.0943576074911704  0.5282677136086197  0.3856237263374638
  0.1262868859125974  0.6960487256820813  0.4271081237299417
  0.8546024725243138  0.1076003354487487  0.6807173736738383
  0.0447049785775813  0.3288944077135791  0.8927177728213943
  0.6065318087376934  0.5222447213251100  0.6237607801052378
  0.4306320163505751  0.9154880425708025  0.5238377182429951
  0.2475205925462283  0.5760163766100120  0.6091077822707764
  0.4886624039604276  0.0850187306382123  0.6609954195674838
  0.9308259708355202  0.1868045549166445  0.5258587455212161
  0.7721383662454889  0.0200518625472430  0.3465613927606466
  0.7993168387018083  0.4704689721496959  0.7683291359907783
  0.8313099380525437  0.5225164228530700  0.6721960607548714
  0.2408267742451519  0.3317401039300489  0.4751410570615865
  0.7116769727530511  0.8209414992379170  0.6513079753130339
  0.5320115693777976  0.4799801956150210  0.8214843215816975
  0.6158863647898196  -0.0220239796466760  0.4630710179237664
  1.0336814211126744  0.9267550343010721  0.5169174769227356
  0.5965436859656980  0.2403714646421092  0.4103805925121017
  0.2569486361490592  0.6613768540332220  0.9186579549644807
  0.6258066051918634  0.8081728717739677  0.8800349789979827
  0.1642178324683470  0.5597150220399050  0.8247253131467019
  0.8282447419063813  0.0263356900732387  0.5293407922385199
  0.3234175345193913  0.3585560761845749  0.7014263533183513
  0.3676188632277849  0.6060461415357834  0.7866519326692031
  0.4946719371574182  0.0952313083475836  0.7677574178062512
  0.4927951770882709  0.6611943588670628  0.9175532709501186
  0.2476658860780943  0.1488284778854413  0.8817420297092785
  0.9677709895405022  0.3737506430169124  0.6253524748137905
  0.0810491374322500  0.1178802391612481  0.7016628994321351
  0.1032409417672596  0.4472732608863385  0.5500025311381314
  0.4470814730932003  0.2872215051276047  0.7767624773466314
  0.7943546532848130  0.2271958232012913  0.6046527760763899
  0.3964941240494463  0.2389267845511103  0.6233761861122760
  1.0032612013586366  0.6054767580123576  0.5138739459078849
  0.4450429665664892  0.6415925875504278  0.5415771885992626
  0.4192966779133303  0.7862065333074761  0.7782477187296430
  0.1335597110392994  0.8112317739826953  0.8899249012228235
  0.3378436625427729  0.8493890999619919  0.6921947679803230
  0.7489995790423846  0.6526827496204739  0.7970584865633628
  0.2171423533741997  0.1879046790697967  0.5553887765039971
  0.0941017066274893  0.8678556309114731  0.3827472548712194
  0.5736542082762418  0.3293964993040559  0.5820579321975912
  0.2851757927371028  0.7608303991625160  0.4960203723067043
  0.8892736231725819  0.8561553846326529  0.3387546167999965
  0.6899772222610023  0.0157575891717293  0.6290509025331995
  0.2503413390696086  0.9771956098517077  0.9160326889468177
  0.9012560555357683  0.0713281786188183  0.8669993285268411
  0.9005746123652126  0.7091679092918673  0.6511671538821657
  0.1056955784823042  0.7936519663726124  0.7209548636902333
  0.8066354298949585  0.5845938257007626  0.4514881716762524
  0.9059150636383823  0.3905653007425942  0.3870957969624978
  0.1041369144008943  0.1182211788325824  0.8015788482157740
  0.8703721129738524  0.2377672959339679  0.4275677250259268
  0.2028200776618376  -0.0149792598503293  0.5602672233833366
  0.2572443630243609  0.0049003626407752  0.6587786025418990
  0.9264743150528241  0.5922796007332639  0.8895079023546650
  0.2797928770327660  0.4372746723255597  0.3476563624216135
