1-pos-1
1.000
11.0985002518  0.0000000000000000  0.0000000000000000
0.0000000000000000  14.4173002243  0.0000000000000000
0.0000000000000000  0.0000000000000000  26.7964000702
Pt  H  C  O  
96  166  6  81  
Direct
  0.0000000000000000  0.0000000000000000  0.0018699899937576
  0.1249999521128992  0.1666699702868031  0.0018699899937576
  0.2499999943280624  0.0000000000000000  0.0018699899937576
  0.3750000365432257  0.1666699702868031  0.0018699899937576
  0.4999999886561249  0.0000000000000000  0.0018699899937576
  0.6250000308712881  0.1666699702868031  0.0018699899937576
  0.7499999829841874  0.0000000000000000  0.0018699899937576
  0.8750000251993506  0.1666699702868031  0.0018699899937576
  0.0000000000000000  0.3333300219343480  0.0018699899937576
  0.1249999521128992  0.4999999922211510  0.0018699899937576
  0.2499999943280624  0.3333300219343480  0.0018699899937576
  0.3750000365432257  0.4999999922211510  0.0018699899937576
  0.4999999886561249  0.3333300219343480  0.0018699899937576
  0.6250000308712881  0.4999999922211510  0.0018699899937576
  0.7499999829841874  0.3333300219343480  0.0018699899937576
  0.8750000251993506  0.4999999922211510  0.0018699899937576
  0.0000000000000000  0.6666699625079541  0.0018699899937576
  0.1249999521128992  0.8333300141554991  0.0018699899937576
  0.2499999943280624  0.6666699625079541  0.0018699899937576
  0.3750000365432257  0.8333300141554991  0.0018699899937576
  0.4999999886561249  0.6666699625079541  0.0018699899937576
  0.6250000308712881  0.8333300141554991  0.0018699899937576
  0.7499999829841874  0.6666699625079541  0.0018699899937576
  0.8750000251993506  0.8333300141554991  0.0018699899937576
  0.0000000000000000  0.2222199683821562  0.0864100026098289
  0.1249999521128992  0.0555599860957249  0.0864100026098289
  0.2499999943280624  0.2222199683821562  0.0864100026098289
  0.3750000365432257  0.0555599860957249  0.0864100026098289
  0.4999999886561249  0.2222199683821562  0.0864100026098289
  0.6250000308712881  0.0555599860957249  0.0864100026098289
  0.7499999829841874  0.2222199683821562  0.0864100026098289
  0.8750000251993506  0.0555599860957249  0.0864100026098289
  0.0000000000000000  0.5555599783168760  0.0864100026098289
  0.1249999521128992  0.3888900080300730  0.0864100026098289
  0.2499999943280624  0.5555599783168760  0.0864100026098289
  0.3750000365432257  0.3888900080300730  0.0864100026098289
  0.4999999886561249  0.5555599783168760  0.0864100026098289
  0.6250000308712881  0.3888900080300730  0.0864100026098289
  0.7499999829841874  0.5555599783168760  0.0864100026098289
  0.8750000251993506  0.3888900080300730  0.0864100026098289
  0.0000000000000000  0.8888900002512240  0.0864100026098289
  0.1249999521128992  0.7222199606033073  0.0864100026098289
  0.2499999943280624  0.8888900002512240  0.0864100026098289
  0.3750000365432257  0.7222199606033073  0.0864100026098289
  0.4999999886561249  0.8888900002512240  0.0864100026098289
  0.6250000308712881  0.7222199606033073  0.0864100026098289
  0.7499999829841874  0.8888900002512240  0.0864100026098289
  0.8750000251993506  0.7222199606033073  0.0864100026098289
  0.2434736223447621  0.4466745245788673  0.1677295551426828
  0.4971805430112122  0.4513344241130925  0.1733720209703275
  0.1097297350876292  0.6163595344031515  0.1690317091674245
  0.8650941249870973  0.2825610941869522  0.1693263883959520
  -0.0086156275920696  0.4488794143852419  0.1711789005681077
  -0.0085158091594107  0.1255063667710960  0.1726242031572070
  0.1232748380465284  0.9521444742242996  0.1698455132583797
  0.3642990704932643  0.9448476619249561  0.1696652825935386
  0.8671196098985702  0.6167139699923742  0.1733255627783040
  0.4928517188899344  0.1215189013229461  0.1711390451510665
  0.2410725886018761  0.1240151947995389  0.1678994654063030
  0.2421290220148590  0.7757660191364321  0.1705507978805860
  0.7414419189444451  0.1230826994161563  0.1746357040737029
  0.6154658000113269  0.2894149071035657  0.1739311704702882
  0.3628353642688701  0.6153113229859731  0.1728970538416588
  -0.0154027015201694  0.7877240975712154  0.1722025968156684
  0.7427447858879005  0.7887046604838316  0.1716307888392291
  0.6153351240040199  0.9510954664583027  0.1733325781273624
  0.8638967328982117  0.9570768964527098  0.1732164545177787
  0.7452353392755544  0.4582657004023641  0.1698485365935959
  0.3643881948413797  0.2868359051807694  0.1745323879531514
  0.1141555924454315  0.2884953704709265  0.1716433683162901
  0.4883961693041262  0.7757381686933010  0.1730445981345356
  0.6096910447790057  0.6153833285059976  0.1745786825858913
  0.3499866767196787  0.5122070810146111  0.2527693377601317
  0.1061942214587823  0.5211071706710453  0.2580888314356467
  -0.0274541141493944  0.0157676864297273  0.2568725263978575
  0.8520145135254985  0.1786320904977230  0.2636611304388272
  0.7339091464884152  0.3394668644585035  0.2591555482194355
  -0.0164557687305886  0.6784173262213448  0.2546173590454636
  0.5996030373311668  0.8457133320667878  0.2600447826030682
  0.2262008502448642  0.6855101720738327  0.2591689890920548
  0.7349861945605690  0.6850126704827990  0.2586656322506632
  -0.0192392432991448  0.3536672147262278  0.2577244295057450
  0.1075068941505396  0.8511108185649077  0.2579612376136765
  0.6000291406147373  0.1817959041098665  0.2594098490241013
  0.2339901592270377  0.0213076770075318  0.2550814483771432
  0.3494970077394831  0.1861996291840652  0.2641082579697124
  0.8567080297140081  0.5040805303860457  0.2559291273392610
  0.4773091133588832  0.0237310121643535  0.2578769387677837
  0.3608704266642183  0.8528080540680401  0.2631790789369030
  0.4837539138433810  0.3479449776279845  0.2695622415315763
  0.1023434822750742  0.1770832608449727  0.2575503942477333
  0.7211329128007147  0.0162572122903392  0.2623353974184612
  0.8566220724064119  0.8514902187448928  0.2601766475024854
  0.2214042064018039  0.3533194935979994  0.2610492772265804
  0.6070524411897279  0.5132599928471894  0.2603713730957117
  0.4775467871652673  0.6801748386685984  0.2733155609862984
  0.6677756075284138  0.7630628518200359  0.3884145317592400
  0.7835680020631236  0.7066150134356817  0.4118630051718595
  0.0782381362526141  -0.0556955915259777  0.4019261148245580
  0.1076073429386377  -0.0023291436591854  0.4523900221351458
  0.7495541206615554  0.7877881503470912  0.8129733713681415
  0.6213854812844199  0.8163794202372218  0.7824093709966585
  0.6423311180214465  0.5055825543685595  0.8477764507951102
  0.6342332896247292  0.4449331084045906  0.8933434115062954
  0.4054194029567413  0.0267110753059662  0.7967408587746411
  0.4126311006531953  -0.0490222244667389  0.8407457963226271
  0.0324233108830752  0.5115579994352299  0.9073746671941864
  0.1143745413164383  0.4230932830280411  0.9063436091965591
  0.1094362208806559  0.6906120607045504  0.7981558105219158
  0.0854173336749935  0.7716351440021528  0.7629507181875498
  0.5117655177129740  0.1315275976499317  0.3524343831394929
  0.4301343324045749  0.1899870521100278  0.3844629724407271
  0.6531922887981422  0.2499942867684158  0.8762574301766928
  0.7750154374060561  0.2951989506417204  0.8711081497681855
  0.7211956337255430  0.2479561120378603  0.8049223347723743
  0.7676008162020196  0.2093303271519083  0.7507485704720578
  -0.0551803266212185  0.1569661006216493  0.8767027722401317
  -0.1173857730452099  0.2079760012381641  0.9214117090063180
  0.4816072604614400  0.5349802805659813  0.6694051733780566
  0.3490236279421408  0.5796823247679700  0.6600328247848851
  0.5555797876023795  0.3885121468622229  0.5267282722090906
  0.5464597180340985  0.3474182589301800  0.4700349028826092
  0.5149406037787048  0.8493347235678124  0.3631600871126779
  0.5731952353263450  0.8937769636704395  0.4116633758900908
  0.5159887428277726  0.7713006885475960  0.5875533531315309
  0.5763749506752072  0.8615871018253080  0.6071977907097489
  0.2461778328704259  0.2815055161894607  0.3729657996453927
  0.2344007157343695  0.1775409391132575  0.3725041267166563
  0.6324158271890521  0.6186338736754053  0.4675709165886657
  0.5587949199347154  0.5233043202695956  0.4778573810084344
  0.0939132106368116  0.2721747448586909  0.7115999358848831
  0.1703210096150984  0.3688780525175069  0.7068632094191086
  0.9504758416335705  0.4686292186322312  0.7841320871517788
  0.0460481352439591  0.3990647937401433  0.7652073695153992
  0.9479703428842696  0.0642644596412284  0.3975792950243291
  0.9477607672166363  0.1324442819593646  0.3533519402343111
  0.5557375159945301  1.1213284888006783  0.9223345130111551
  0.6314466931388676  0.0874106661298431  0.8803149474519670
  0.3149308258774084  0.4049029034271520  0.9160593000698839
  0.4498074000935708  0.3744906224467656  0.9070126584066408
  0.7595498991796490  0.0770158782313844  0.7971634059888317
  0.7519405914728440  -0.0450697126640122  0.8001415127043210
  0.1923289280057283  0.8185847748324190  0.5565853025976516
  0.0989703197800850  0.7359318022605132  0.5560192989307312
  0.0126457797013824  0.5077394266411912  0.3921830566445025
  0.1369257383900616  0.5240874869737868  0.3650431999661883
  0.1338495745368002  0.6518383337166226  0.4188786297336478
  0.2392177368351555  0.7034264277168022  0.4479919623998360
  0.9446184702207567  0.1674924645413108  0.6908645069674028
  0.8595150638171020  0.2435908647224216  0.6602413371516718
  0.0234729399549051  0.2908719565145638  0.8811091668935430
  0.0635102960857870  0.3681989712784620  0.8426597368133512
  0.6762546259331518  0.5577712853649366  0.6410658705011559
  0.5711568135318028  0.5842296629089557  0.6061498288146273
  0.4662349611390761  0.8927081660828003  0.5350220464779393
  0.5138034696962910  0.9525910921763311  0.4917733918129863
  0.2283155659602776  0.6956839492039487  0.6056396729815980
  0.2408841315984480  0.5814289728094360  0.5894831316377679
  0.4554172561540690  0.1053744533625929  0.7019786756251248
  0.5572225685174894  0.0857322374002247  0.6550763448975847
  0.9072531323019922  0.1679697791628376  0.5338187213254738
  1.0447519356337758  0.2196768421706203  0.5269966588349493
  0.7883804623945396  0.0586269762611563  0.3526656321536800
  0.7530740209285905  0.9498747169749607  0.3500059230728599
  0.8535878307579028  0.6062453519881786  0.7725618720300547
  0.7562795162561442  0.5385125503396361  0.7610202266564307
  0.8439246157678768  0.5998361877714096  0.6908222753207250
  0.8865993289592546  0.5641639898287486  0.6401396337105805
  0.2596718527021334  0.4062297950367029  0.4489795025705557
  0.3708696046506315  0.4187139797245292  0.4858440569813015
  0.6590792723740901  0.8773244930615384  0.6970582409340997
  0.7648537955678527  0.8638002597608153  0.6628659615346393
  0.5484148598827894  0.5399453793421967  0.7757765743622458
  0.5547824647750395  0.4401418276845310  0.7869322882460835
  0.7034638196484038  0.0200861489664970  0.4824291979457491
  0.6375560501386121  0.0280850991170685  0.4282895350246330
  0.0352802860311235  0.9351706773418891  0.5435001652813918
  0.9359876765795649  0.8875726402251085  0.5796894055808169
  0.7302910866164530  0.2900506105749098  0.4574917654156557
  0.6322950670079832  0.2283960846809568  0.4305034201489252
  0.3301664596624846  0.6630299907182602  0.9122349857130474
  0.2116470093803021  0.7302660166190155  0.9093229862953801
  0.5951946916276952  0.8348179429817189  0.8556928677147064
  0.5690460447640857  0.8350415892573625  0.9122163571398550
  0.1687993525337949  0.5840724331735175  0.8576980997368897
  0.1326166090018595  0.5329200555350885  0.8072720850908890
  0.8588904883300783  0.0191940258019726  0.5296844793448429
  0.7569572615396820  0.0804088367977567  0.5574683038940202
  0.3305107073548140  0.3277779047796339  0.6670736369912162
  0.3401127985817540  0.4367840268239783  0.6833904508227221
  0.3578994607181976  0.5972392878790916  0.7935523851783307
  0.4210266091801144  0.6019992316641516  0.7390530242128972
  0.4367885892072472  0.1832984360723686  0.7786426665686169
  0.5597666588593734  0.1472302713529059  0.7632510340874064
  0.5440335907926604  0.5928379518582847  0.8973702543328436
  0.5036028319856564  0.6955624131762085  0.8938693892481964
  0.3718830095021721  0.1919961505923622  0.8927530799297194
  0.2431451981597548  0.2295301834751569  0.8808249278584470
  0.9370333355908461  0.4179313137243455  0.6129164982338396
  1.0351971750089968  0.4249164004488532  0.6536590839893840
  0.1048000219319146  0.0948777249636844  0.7321186568720153
  0.1302145536074222  0.1011635746435886  0.6746525962755962
  0.1206282009303797  0.4700500489944562  0.5841782481971716
  0.1919665175080264  0.4611778698617497  0.5324563455808080
  0.4110818786313090  0.3454436048925249  0.7647852107190548
  0.3988348784676647  0.3693987038518912  0.8227652265319925
  0.8817322452024886  0.2829833504835742  0.5795792902894991
  0.7623418330533248  0.3393125275115451  0.5911047261648746
  0.3785006741265514  0.2329793651476163  0.5814674483468296
  0.4410104678248019  0.1911738399367224  0.6303185007930783
  0.0710017303619196  0.6109139995610822  0.5249951605083272
  1.0826408265973815  0.6923335111574007  0.4846443446499517
  0.4975226338355453  0.6455211662592582  0.5404354124121685
  0.4179712076366040  0.6566666735733920  0.5904998194551101
  0.4296960326172491  0.8713476395064765  0.7792163272901962
  0.4386834725899447  0.7607478796906668  0.7763026933096815
  1.0446892433524573  0.8145304227352435  0.9002399215865996
  0.1073915474306265  0.8015649914345246  0.8492028930448104
  0.3711281173446808  0.8349816755504574  0.6397197642627992
  0.3694456854956594  0.8154080497252589  0.6943970582971342
  0.8531009272324355  0.6738004779304414  0.8543695883970703
  0.9344441187013534  0.7278296969576689  0.8156772185905367
  0.2314222334845142  0.2088980802885534  0.4759584434397052
  0.2195057646644545  0.1197214140266546  0.5101059944578584
  0.1372348344771157  0.8235381063222935  0.3446234105703541
  0.1227002424205144  0.7968738258939746  0.4007466727234846
  0.5859173897252783  0.4230594035435051  0.5996868540700236
  0.5333105208282569  0.3193728618163365  0.5928157085796726
  0.4101162278896007  0.8024369286352782  0.4742164774600320
  0.4472865276725010  0.6971766463500988  0.4666830446231154
  0.8227451920649421  0.7990946650109985  0.3564854798956098
  0.9462136688420415  0.8477935244282850  0.3628055566953415
  0.7064404684072884  0.0044904239276978  0.6502339597503238
  0.7561980643140358  0.1067696424262219  0.6485609763688786
  0.2654397341949160  0.0698332501325770  0.9052811207792564
  0.2094661461599698  0.9711595923209549  0.8924260312598592
  0.9844145226403949  0.0201557879546834  0.9010360926597329
  0.9077951293703822  0.0143264233446334  0.8476381942423534
  0.8776223645821226  0.7397914439156277  0.6447207476094029
  0.9596577538818919  0.8057300489325151  0.6708640338107112
  0.1025726322811381  0.9250238799509716  0.7231814341416259
  0.1685809503222342  0.8529807131554747  0.6874831673000359
  0.8483278635573314  0.5579808725936819  0.4295429505510473
  0.8927643529577812  0.6173893498796286  0.4736497916641707
  0.8750057154546613  0.4445047120749095  0.3484309120568491
  0.8643009239508967  0.3891911078360327  0.4050714222456743
  0.0880962621450972  0.0188451325402840  0.8130362499225587
  0.2173112027734414  -0.0102211418023762  0.7939488856661636
  0.8791796093726696  0.2320202738416938  0.4064848711231644
  0.9172574307189780  0.2560298878272975  0.4624949697620894
  0.3132035784327016  -0.0204487498015124  0.5133546922221829
  0.2337018114838837  0.0076367545023740  0.5597544687945111
  0.3307706221211837  0.0406016291880626  0.6447274776440168
  0.2587627373107665  -0.0450920127822728  0.6545719754239020
  0.8249578286593340  0.5208409932425186  0.8825402133139405
  0.8822674166549591  0.5786101092866037  0.9217321547071399
  0.4713501138725090  0.3488014034919052  0.3610346571724324
  0.6782595280456143  0.4193408370389636  0.3514150908566322
  0.6922600935341630  0.5975784788249635  0.3505771856961936
  0.3002667939985422  0.6109456485794769  0.3502935817725288
  0.5064321988178918  0.6830574543493035  0.3686008561942731
  0.3839352109767188  0.5677001585640068  0.4063263550467933
  0.4776436964030560  0.4121555277377537  0.3405525603697963
  0.5972267050428720  0.4593780131690061  0.3414934290698438
  0.3641531498496406  0.4688457375332344  0.3476234905247284
  0.6096115868090104  0.5596892967380640  0.3425201065872687
  0.3819868289512741  0.5715310570915209  0.3632219941336081
  0.4936874173167102  0.6178239011688803  0.3453574140353148
  0.7457084145002135  0.7328698592605614  0.3808954327469787
  0.0494637757124856  -0.0044184010882032  0.4257836091418993
  0.6853629931725546  0.8425501451253704  0.8061814707425647
  0.6571130680126980  0.5069823669191773  0.8844685309373762
  0.3728758473586395  -0.0347161250312592  0.8100882451087387
  0.1149959928768761  0.4893134009659926  0.9201329089171183
  0.0530514286022120  0.7383781826751038  0.7919471617084872
  0.5163513603534466  0.1661806960544394  0.3836207360380433
  0.6930525503076422  0.3080565091662743  0.8650043436572337
  0.7162257480249002  0.1949293502304417  0.7795365340522061
  -0.0924727591580267  0.2197211029330427  0.8870235540531917
  0.3977018780608791  0.5457463633543791  0.6846869045369892
  0.5227887553689049  0.4050429813105685  0.4921156522052769
  0.5416185647988867  0.8367335158747250  0.3968023981670848
  0.4992485610478184  0.8401555273562398  0.5908540117710606
  0.2765327101472328  0.2268741896757451  0.3899370371626942
  0.5525339367006311  0.5937723094002948  0.4686382472907403
  0.0884157833614367  0.3406073498506497  0.7068361485266715
  1.0281804169035609  0.4463559703260913  0.7928460971900033
  0.8917093444490325  0.1055870888250100  0.3780164940537998
  0.5703457340439648  1.1376283726446670  0.8874811851479609
  0.3679793257595896  0.3722335726112386  0.8927260690104130
  0.7916372533014135  0.0164369183351390  0.8115545743767397
  0.1399206043490554  0.7786453454564898  0.5786007069562414
  0.0741254317822423  0.5549576881054700  0.3843874869578002
  0.1574525224718164  0.7097548087715451  0.4352073828405473
  0.8634483652911386  0.1940216488372264  0.6884365946497198
  0.0926730221800183  0.3309034027993014  0.8710640810202601
  0.5983150054731974  0.5312563394768233  0.6281513903174968
  0.4379782937619557  0.9188863405418347  0.5010512595806228
  0.2758837264794772  0.6378757009096350  0.6114810602459296
  0.4667780014114790  0.0936717099310853  0.6628322849065238
  0.9556412043582055  0.2286710163282370  0.5303041391781227
  0.7199957613555945  0.0091785278825617  0.3412677485573810
  0.8356197034996583  0.5551241581007297  0.7498521284560754
  0.8318519961652175  0.6126086633691382  0.6552912470107385
  0.2821605555572349  0.4130779882257154  0.4853215115362671
  0.6831960002677161  0.8905240616520050  0.6621878805553885
  0.6071444148237182  0.4949843240672675  0.7807102296985469
  0.6397779424970864  -0.0077334639818402  0.4584896492369880
  0.9531086052355952  0.9418165067350029  0.5559266088867889
  0.6480944401144135  0.2717536431818480  0.4577987405010572
  0.2441950605317550  0.6692963416573722  0.9208278744031991
  0.5435605621688921  0.8033615263264280  0.8801542211197464
  0.1831349283314524  0.5812555497232063  0.8209513127908681
  0.8015711781199599  0.0702374901365534  0.5261349411176623
  0.3085954974361989  0.3741703429888809  0.6929282764422249
  0.4224502940331590  0.6267163941603152  0.7748159674586107
  0.4737675510659395  0.1313788135248439  0.7588932107195628
  0.4793823276471172  0.6373100229343471  0.9109417271593159
  0.2906390447463250  0.1720997117905596  0.8802297469961589
  1.0062027856951965  0.4581828397848133  0.6235570328971913
  0.0910441432693683  0.1372840354370923  0.7025283415452265
  0.1697242463363008  0.5065802897057037  0.5596262899051452
  0.4536052448603143  0.3498478328139895  0.7970165510497469
  0.8397443144886589  0.3208060902626146  0.6067434537552286
  0.4172185296161079  0.2520930494236458  0.6140628814502241
  1.0393121124477369  0.6689249903768475  0.5136205097604096
  0.5038669379128986  0.6592904338621763  0.5762295159069386
  0.4680500106541430  0.8202519944800675  0.7607943215354390
  0.1186493811527761  0.8225593757152818  0.8833762433307081
  0.3121340735959490  0.8258864417646626  0.6665461408177390
  0.8454972120740462  0.7207926631079471  0.8268131163498724
  0.1938508784329728  0.1872393834838844  0.5056492716373625
  0.0875072475889242  0.8354513633626448  0.3736439901692090
  0.5982395656406971  0.3637618773493103  0.5807065749292590
  0.3805006243807670  0.7366052268163559  0.4782997887224909
  0.8710386860181519  0.8567287302293596  0.3445890176109421
  0.6938116872098227  0.0666198182570367  0.6326752602732530
  0.2599349680811258  1.0035981020089022  0.9165902625597231
  0.9821362330132988  0.0382207460985820  0.8663232003285557
  0.8901173033354474  0.8053530581287279  0.6472441482648215
  0.0927872766983073  0.8645008547850470  0.7085381437006695
  0.8165674035399673  0.6082172101695102  0.4550120531697599
  0.8781351480096922  0.4468430115051440  0.3866763120626399
  0.1375160423276533  0.0071585208599629  0.7828643326544955
  0.8826961186049571  0.2817538395332423  0.4312312390779197
  0.2273471300674859  -0.0154261147468612  0.5262568412494503
  0.2509648832100772  0.0150099641495471  0.6361420640251237
  0.8931913915298830  0.5626053598321196  0.8881700951489924
  0.2657109092394461  0.4311171792360856  0.3574618507898888
