1-pos-1
1.000
11.0985002518  0.0000000000000000  0.0000000000000000
0.0000000000000000  14.4173002243  0.0000000000000000
0.0000000000000000  0.0000000000000000  26.7964000702
Pt  H  C  O  
96  166  6  81  
Direct
  0.0000000000000000  0.0000000000000000  0.0018699899937576
  0.1249999521128992  0.1666699702868031  0.0018699899937576
  0.2499999943280624  0.0000000000000000  0.0018699899937576
  0.3750000365432257  0.1666699702868031  0.0018699899937576
  0.4999999886561249  0.0000000000000000  0.0018699899937576
  0.6250000308712881  0.1666699702868031  0.0018699899937576
  0.7499999829841874  0.0000000000000000  0.0018699899937576
  0.8750000251993506  0.1666699702868031  0.0018699899937576
  0.0000000000000000  0.3333300219343480  0.0018699899937576
  0.1249999521128992  0.4999999922211510  0.0018699899937576
  0.2499999943280624  0.3333300219343480  0.0018699899937576
  0.3750000365432257  0.4999999922211510  0.0018699899937576
  0.4999999886561249  0.3333300219343480  0.0018699899937576
  0.6250000308712881  0.4999999922211510  0.0018699899937576
  0.7499999829841874  0.3333300219343480  0.0018699899937576
  0.8750000251993506  0.4999999922211510  0.0018699899937576
  0.0000000000000000  0.6666699625079541  0.0018699899937576
  0.1249999521128992  0.8333300141554991  0.0018699899937576
  0.2499999943280624  0.6666699625079541  0.0018699899937576
  0.3750000365432257  0.8333300141554991  0.0018699899937576
  0.4999999886561249  0.6666699625079541  0.0018699899937576
  0.6250000308712881  0.8333300141554991  0.0018699899937576
  0.7499999829841874  0.6666699625079541  0.0018699899937576
  0.8750000251993506  0.8333300141554991  0.0018699899937576
  0.0000000000000000  0.2222199683821562  0.0864100026098289
  0.1249999521128992  0.0555599860957249  0.0864100026098289
  0.2499999943280624  0.2222199683821562  0.0864100026098289
  0.3750000365432257  0.0555599860957249  0.0864100026098289
  0.4999999886561249  0.2222199683821562  0.0864100026098289
  0.6250000308712881  0.0555599860957249  0.0864100026098289
  0.7499999829841874  0.2222199683821562  0.0864100026098289
  0.8750000251993506  0.0555599860957249  0.0864100026098289
  0.0000000000000000  0.5555599783168760  0.0864100026098289
  0.1249999521128992  0.3888900080300730  0.0864100026098289
  0.2499999943280624  0.5555599783168760  0.0864100026098289
  0.3750000365432257  0.3888900080300730  0.0864100026098289
  0.4999999886561249  0.5555599783168760  0.0864100026098289
  0.6250000308712881  0.3888900080300730  0.0864100026098289
  0.7499999829841874  0.5555599783168760  0.0864100026098289
  0.8750000251993506  0.3888900080300730  0.0864100026098289
  0.0000000000000000  0.8888900002512240  0.0864100026098289
  0.1249999521128992  0.7222199606033073  0.0864100026098289
  0.2499999943280624  0.8888900002512240  0.0864100026098289
  0.3750000365432257  0.7222199606033073  0.0864100026098289
  0.4999999886561249  0.8888900002512240  0.0864100026098289
  0.6250000308712881  0.7222199606033073  0.0864100026098289
  0.7499999829841874  0.8888900002512240  0.0864100026098289
  0.8750000251993506  0.7222199606033073  0.0864100026098289
  0.2430506826417838  0.4524523265878453  0.1671527202223388
  0.5015707895124994  0.4457326554779442  0.1714087142514333
  0.1199715148886041  0.6193364209028626  0.1707027111334608
  0.8689233417583548  0.2838564352292733  0.1718622494004892
  0.0009473279507558  0.4492041885750800  0.1676744880330661
  -0.0055053955862271  0.1240069575707823  0.1714461048000658
  0.1224259429268052  0.9569632354361182  0.1710270540331500
  0.3755980009753050  0.9439100028979759  0.1726940668924511
  0.8704037252270435  0.6179297197601745  0.1693575013811968
  0.5004383487939472  0.1197148754585084  0.1708842648081058
  0.2515284854047959  0.1188330995224998  0.1713812341273095
  0.2466509716892630  0.7815753970363826  0.1721277375138688
  0.7458185660497261  0.1160881928836480  0.1716074701770818
  0.6228017621731329  0.2849945623366178  0.1726140231517105
  0.3774771499167683  0.6138124221818144  0.1720609187622712
  -0.0005991948325560  0.7919918156351213  0.1712501638122374
  0.7569771369998790  0.7895355497844380  0.1731760004307685
  0.6177365981757827  0.9523142273515790  0.1748344401981842
  0.8668203362557678  0.9539220171623877  0.1760222249049589
  0.7446803448564659  0.4555328132815430  0.1722623780100006
  0.3725141470920338  0.2869820120639742  0.1729106383081934
  0.1224666969557044  0.2875667925269481  0.1754573577451782
  0.5024934837385359  0.7870778027687880  0.1735569726872379
  0.6193796662558183  0.6132257399896975  0.1740608908614935
  0.3622569829421716  0.5090156706614820  0.2538936720894099
  0.1184810408313262  0.5198210930551580  0.2572635270797607
  -0.0131858165229366  0.0165346945261088  0.2554976242504242
  0.8668564535861193  0.1876697516459861  0.2537154114727791
  0.7405438136893334  0.3498403580788919  0.2574833822015146
  -0.0037000159632685  0.6892616387880265  0.2553864109832617
  0.6105177401695394  0.8475583585756460  0.2625260692917956
  0.2471962331356479  0.6845308486235100  0.2564356019576592
  0.7413223350484333  0.6828293202292651  0.2567090316489911
  -0.0131176161460544  0.3631541139425921  0.2561783077061203
  0.1143019205855545  0.8541990199554119  0.2559473131589504
  0.6155353204134077  0.1788938155878089  0.2617752791727014
  0.2385892718946904  0.0139245784770184  0.2598933347373337
  0.3674407223659437  0.1897027672552884  0.2584357556670974
  0.8709265937739950  0.5193741111584268  0.2577059339541521
  0.4835695713418193  0.0141747200044814  0.2587083522577165
  0.3603999950760266  0.8509677784486642  0.2608135004698725
  0.4907815369393349  0.3517517238874192  0.2623904535564550
  0.1219708241102623  0.1890938794494283  0.2639278998549157
  0.7270203846858825  0.0172547004591547  0.2590909848230289
  0.8632875740527268  0.8412978717441467  0.2612009368073209
  0.2405045910835648  0.3529254346610547  0.2612189441328847
  0.6293615063501169  0.5186677940850793  0.2655019019518206
  0.4853737077337388  0.6749066645015664  0.2615437143772907
  0.6670251597281672  0.7713236539707230  0.3748493793825131
  0.7437606786701860  0.6907375403693875  0.4081772402690644
  0.1395053518648964  0.0111288625473422  0.4059357599566848
  0.0735169967012137  0.0323285860215642  0.4540957551395888
  0.6932018040953088  0.8499133382924985  0.7613272645301170
  0.5672398284244727  0.8873737811491791  0.7376180053372549
  0.6480453617716068  0.5436170733470685  0.8516112444663048
  0.7393688866808050  0.5158247566535001  0.8948948933020248
  0.3913828862053240  0.0193665778998895  0.7733897091776524
  0.2710547221019436  -0.0272140143852106  0.7954462417212639
  0.0517001995208262  0.5602735293384092  0.9096297417878518
  0.0202267837641930  0.4518453838410160  0.9046543710645184
  0.0802094700998563  0.7599834291258223  0.8039629447038333
  0.0964879999102871  0.8384669399840375  0.7625257402326691
  0.4987744910581234  0.0724251567044479  0.3509460088095263
  0.4107369374038328  0.1277742180394556  0.3829178808317223
  0.4821710732161394  0.3149956743458532  0.7842015678616923
  0.5213990528910860  0.3065901052230195  0.8364823722693696
  0.6499118809345577  0.2774368629612279  0.7740402128742061
  0.7141278396254097  0.2281725954527468  0.7246972906743537
  -0.1732269488743032  0.1351543140591434  0.8606149762163884
  -0.1531143820377347  0.1266956414226081  0.9205086275387848
  0.4825065797995083  0.5443005270205511  0.6671404303513435
  0.3489027068384284  0.5757047232539679  0.6561710509149286
  0.5370765522786074  0.3545809225421888  0.5143487632664356
  0.5413330646657056  0.3310452886841879  0.4579318909910727
  0.5183404244160815  0.8788066489830737  0.3512476927886736
  0.5675009117451250  0.8948307349565776  0.4060527768168521
  0.4768260791760321  0.7714719379605643  0.5712710522606310
  0.5783472113053271  0.8350626641878469  0.6029489016201052
  0.2574489753186780  0.2176087920893890  0.3655078678793176
  0.2258654246724409  0.1591929692517335  0.4115120190328498
  0.6091802086776071  0.5812235797570663  0.4565799330375755
  0.5405218244354286  0.4940558360014202  0.4669987712945279
  0.0525355597307335  0.2717134709102723  0.7140617150204082
  0.1439735230569416  0.3519336753318081  0.7049960837168155
  0.9158000065866161  0.5262928390234313  0.7742291559668132
  -0.0101840470275854  0.4442566436124125  0.7536634070432158
  1.0020261791043661  0.1010985889676699  0.3856669416162686
  0.9549665201909654  0.1254670955905565  0.3321749983087771
  0.5408022482881465  1.2310479595538655  0.9196752189114507
  0.5134189717188001  0.1406216725086222  0.8854043344756989
  0.2435611235096012  0.3078862714891907  0.9192754473722912
  0.3494434451962103  0.2496788547853643  0.8934423924549695
  0.4373237161582095  -0.0025538020383277  0.8440655517101774
  0.4393262505813984  0.0133325512827997  0.9028312676113673
  0.1599516714712951  0.7907818141141295  0.5355105963490303
  0.0387697473566498  0.7454708305779094  0.5347551943455160
  0.0386922554180556  0.4851389187006818  0.3892425426577888
  0.1803376146047654  0.4591986481311857  0.3788096096232167
  0.1457866404010383  0.6099548508935188  0.4174638554057276
  0.2184606108025064  0.6799252897486184  0.4505441689171605
  0.8639338719071452  0.1716447889410690  0.6860036583736078
  0.7979136066031763  0.2288160167698922  0.6421443624972558
  -0.0796911743779576  0.3400234349796941  0.8756529021521237
  -0.0742955730317047  0.4315522344268922  0.8442859453408340
  0.6967488985591410  0.5669237306041358  0.6274206276684582
  0.5849314715064428  0.6190580970601478  0.6012083830326153
  0.4500705753635382  0.9153473095439228  0.5468619334802545
  0.4741829195928045  0.9729053490998544  0.4983393645197331
  0.2529196023800373  0.6901604109089094  0.6282880487488686
  0.1864625148217091  0.5916820221806942  0.6083171733925502
  0.4556561261491001  0.1330918277796469  0.6860750942379398
  0.5235061414318289  0.0964245245414869  0.6405533673490900
  0.8675874488571861  0.1963840189252540  0.4884120114348747
  0.9726106883089271  0.2567840306717167  0.5105360651677228
  0.8191478531097508  0.0518545290566909  0.3514335535082833
  0.7950067951630660  0.9489124239253496  0.3428063815338998
  0.8004969874068439  0.6640909882741145  0.7690672359276426
  0.7322506069035722  0.5711843549890305  0.7686180859534494
  0.8478541131783874  0.5906872313684847  0.6799041286915679
  0.9104375513674662  0.5288943164579363  0.6328101305129319
  0.2080598524314573  0.4423118334771043  0.4718700703853772
  0.3398156374405931  0.4166778964118904  0.4913050202493763
  0.6960338150235333  0.8589385660935182  0.6740414249929951
  0.7834134028234900  0.8432207832649371  0.6257803693096915
  0.4986453936514925  0.5793098985913305  0.7968720850173747
  0.5273350681278578  0.4661268160923165  0.8062381091826546
  0.6659036272852606  0.0134344478915368  0.4623361938746995
  0.5476921617147464  0.0199448537885991  0.4307269066017440
  0.0930842995144725  1.0269708847946863  0.5319334845523379
  1.0578043193264741  0.9225599238671464  0.5189853658464281
  0.6906560006661097  0.2943801326441522  0.3955077383878191
  0.5758678381940332  0.2215102358219121  0.3922642897651568
  0.3490191609151664  0.6783448753128010  0.9022327067316230
  0.2294942177513498  0.7331074689479995  0.9007544127183891
  0.6052585126725148  0.9201477919451527  0.8724497368174093
  0.7052898930583416  0.8752716231802471  0.9085224944590213
  0.1840797434562076  0.6097416327353216  0.8488941777293826
  0.1121649130564378  0.5640692552752086  0.8045822205937487
  0.8782629617113470  0.0247911065275298  0.5092063873674715
  0.7578468873518180  0.0462904105912384  0.5375019136513624
  0.3093878733158655  0.3327814798788341  0.6554298495540006
  0.3364388624394913  0.4253543204062499  0.6888272201468977
  0.2999268623938744  0.6359889386672734  0.7751782049074686
  0.3950412169237844  0.6124496333313135  0.7283546479664993
  0.3874242684548875  0.1554527979949046  0.7689055002322265
  0.5338867142106883  0.1485517468027885  0.7626001169062064
  0.5902179977279008  0.6380627364889769  0.9068964244016312
  0.5561997316978787  0.7483245607257115  0.9036054536604505
  0.1895407103548812  0.1789821712910392  0.8819132574894273
  0.0455201988501161  0.1461441810755038  0.8818076491020100
  0.9010197380657953  0.3889793121841080  0.6104952535207429
  0.9799601483485186  0.3775504605796808  0.6619143612512730
  0.0614939216575060  0.1161443982679705  0.7300208868263099
  0.0857008631184865  0.1301907124911199  0.6736690684721990
  0.0578957105754706  0.4685577364695539  0.5914242683152221
  0.1746520639295950  0.4847637908115585  0.5531322705053706
  0.3085051372994915  0.3050296826993849  0.7400109736812120
  0.2925362929710646  0.3012662620134129  0.8001627653576068
  0.8089258730199995  0.3023661456569035  0.5570620169535552
  0.7012044410719215  0.3399462388137903  0.5900019865646826
  0.2654376665732122  0.2482662931418415  0.5839257257097377
  0.3875524135887103  0.2090840273908743  0.6110750820969433
  -0.0051893198534333  0.6018606744052388  0.5252324861036810
  1.0322694072689609  0.6520541385380242  0.4740660165477663
  0.4740260196188897  0.6220235397876246  0.5172450592090504
  0.3823819558603616  0.6361320937911794  0.5662534942771792
  0.3901678425783427  0.8801054126842305  0.7562505409424852
  0.4075065769058741  0.7654385666117879  0.7512295693251215
  1.0688946172322686  0.8389776624761439  0.9090117459766004
  0.1043050625252048  0.8646355877010424  0.8510268860092367
  0.3849165061474995  0.8130912313348294  0.6215140687133239
  0.3755303068920547  0.8106131093879908  0.6816633874679894
  0.7446425159615275  0.8053912541079635  0.8341324112135923
  0.8706154216857266  0.8202573848443375  0.8032407528739868
  0.2041992305250830  0.2941073660208026  0.5132772930344350
  0.1832787421318568  0.1924799052476370  0.5234834756068524
  0.2110726503087720  0.8472655891573546  0.3515299530952888
  0.1662769970294591  0.7951862406095266  0.3994019046462206
  0.5332522628127296  0.4412160168086429  0.5898496683133762
  0.4850468653029869  0.3420772630154099  0.5967696016146488
  0.3171508571826295  0.8310307590047928  0.4884625994241736
  0.3660483812793636  0.7432472853092905  0.5182064455830599
  0.8423833689316454  0.7921728994135947  0.3635530477108334
  0.9876757712937100  0.8419384968512270  0.3559237473733096
  0.7012735701869004  -0.0120061679861705  0.6327800004656911
  0.7137155127077022  0.0881090099628328  0.6494881133699277
  0.2070749864809225  0.0522842525835380  0.9017583789276381
  0.2082465533778004  0.9351388165917588  0.9063921313934435
  0.7479154187840605  -0.0063353569447108  0.7689941250733908
  0.7569869362157668  0.0973679390704481  0.7699727378807569
  0.8845915945271736  0.7296868599065871  0.6209351478038226
  0.9885762070889318  0.8006951170194201  0.5958378531135594
  0.0690679138990584  0.8278172037497036  0.6830482085783917
  0.2063438240431252  0.8381707244836624  0.6786017724605602
  0.8088203158570116  0.5567145871438423  0.4230441655148564
  0.8467011853944805  0.6177413828969784  0.4710856385794281
  0.8986642927076929  0.5039790465730407  0.3362761680185925
  0.8898407364452945  0.4181157335504318  0.3782618278778500
  0.0321881075546276  -0.0017224928116669  0.7878344231536335
  0.0934060728819526  0.0766060050229428  0.8105379169552716
  0.9039633983765388  0.2625228806028950  0.3706472080421461
  0.8879902424385329  0.2971589432520131  0.4272324691976639
  0.3165652512041149  0.0545116011370401  0.5470360398485644
  0.2346468295369580  0.0963054973537817  0.5886566016806849
  0.2980780727435186  0.0622600170028423  0.6548961703596859
  0.2043619353103270  -0.0134855552270668  0.6584643737731860
  0.8572730975481943  0.6412753266882110  0.8764725465798252
  0.9218761041106092  0.6932906360965584  0.9178266816127750
  0.4568236420301668  0.3595683241140036  0.3599029159452320
  0.6677567137774347  0.4364434196004620  0.3598753752234161
  0.6697461642796698  0.6091365859329183  0.3448714923082959
  0.2863082725600375  0.6126313151551813  0.3388374386415194
  0.4861408601153066  0.6948631893171527  0.3581949119790240
  0.3601706258331339  0.5782874022382926  0.3969546973486655
  0.4740784320968645  0.4193649072528456  0.3361577234703814
  0.5884667734670510  0.4711720203516689  0.3424162201139847
  0.3632864737148683  0.4769194230838627  0.3345011926384894
  0.5870739178695127  0.5711069736220170  0.3370241148042613
  0.3669720977876673  0.5732335935801922  0.3550388165901492
  0.4742051806365847  0.6265182181665058  0.3374533420687397
  0.7467782049611431  0.7459982152741915  0.3850115505878472
  0.1063622229416581  0.0641928741235556  0.4247274024079405
  0.6574420837100584  0.8916999835469674  0.7366195321382465
  0.6998708798731822  0.5665649500474764  0.8800211128555522
  0.3573182063366468  -0.0348356844684064  0.7922401710783814
  0.0866247924483378  0.4993093995758500  0.9169998786376755
  0.0519091072783968  0.8258981247286975  0.7941738151523712
  0.4946954879250057  0.1106542814382891  0.3815856250620490
  0.5447104840962201  0.3480160860383006  0.8075072188507783
  0.6729037879229468  0.2225354161587333  0.7569389698453107
  -0.1105360107912810  0.1345012155002238  0.8881307897535944
  0.4036719615493445  0.5429049031529087  0.6823792187606162
  0.5099503167900626  0.3770006832027319  0.4807745906931387
  0.5462376528861881  0.8485744212761583  0.3800362457278386
  0.4939363533114228  0.8304480538471489  0.5867691708217821
  0.2896937655949101  0.2040698297966427  0.3988456316931019
  0.5277987966932706  0.5588728896148939  0.4650540609131527
  0.0671403505333207  0.3370919521540285  0.7235393361387178
  0.9865860953802424  0.4841695331373263  0.7845548053441601
  0.9304241260548006  0.1286875075177316  0.3668533725256711
  0.5207214791982999  1.2100845406891745  0.8844743075715358
  0.2687549779544530  0.2775961429765064  0.8879602837681624
  0.4901863240501944  0.0145643514134558  0.8730391953438764
  0.0736630626437483  0.8038180274741884  0.5428872636656160
  0.1215713836453868  0.4860826742713030  0.4037829615565687
  0.1402741490993350  0.6733472410554135  0.4330243371535613
  0.7845826874480407  0.1940773830515036  0.6740407902360891
  -0.0933896900107651  0.4066836351730810  0.8786631500618682
  0.6041027259708008  0.5629682184546503  0.6218871231039813
  0.4071385664263197  0.9557233114335736  0.5239791283387569
  0.2656921363606541  0.6287480812545904  0.6138729565055797
  0.4403773528416436  0.1188464517727134  0.6507191625001685
  0.8892307128793716  0.2612261390140302  0.4977331645616251
  0.7549080266625363  0.0106265524693573  0.3397823137118151
  0.8049850874266572  0.6017324557463194  0.7547596718781580
  0.8563014697646789  0.5824009807708420  0.6434980984880966
  0.2533852655131405  0.4228419182895936  0.5005383141415344
  0.7043951957411623  0.8677515586388107  0.6350426849136452
  0.5646310864464470  0.5286355229708095  0.8020613694673647
  0.5883072320731846  -0.0222283759520975  0.4560671993284203
  1.0308230522898367  0.9883659335943292  0.5147511296280273
  0.6104164932465762  0.2791760630826028  0.4102668573203589
  0.2617393029503125  0.6695622667709754  0.9077607727409351
  0.6455019910945261  0.8569203671833673  0.8809026049305367
  0.1607773565091014  0.6232932484858693  0.8145177927826444
  0.8045122338715879  0.0599473010309712  0.5067474896040635
  0.2985018687694039  0.3625034031469476  0.6883333503373213
  0.3845174129277393  0.6533289079687824  0.7579396944586823
  0.4567481549390291  0.1149577686678485  0.7549164446419991
  0.5265588202651249  0.6864604472631436  0.9141383169764404
  0.1293198231416199  0.1264174559136984  0.8694452277942166
  0.9627218661068282  0.4130994472086864  0.6310972217087734
  0.0316514695977078  0.1561251473841239  0.6989767848902029
  0.1036966244347605  0.5110586776212980  0.5724542056661983
  0.3364628304616533  0.2739607986343208  0.7724383528076468
  0.7860656137467835  0.3191153743989805  0.5915541656928878
  0.3407327646261648  0.2682326152840979  0.6017272854547157
  0.9627944694659956  0.6409479523652400  0.4984375150807454
  0.4535037605359060  0.6603470305247280  0.5478237443814383
  0.4354815978867174  0.8267360900420395  0.7385175555804535
  0.1359215398364604  0.8483601820876872  0.8864538610586100
  0.3235433077291341  0.7982012637847209  0.6494838589402394
  0.7919894103687045  0.7918281845486282  0.8023452003058383
  0.1495004211340085  0.2539798537473951  0.5315880785509440
  0.1647028137971646  0.8573255372990700  0.3809817801292367
  0.5449209069864319  0.3774150292666317  0.5795286531592709
  0.2955831400434442  0.7663529596461911  0.4960016587370200
  0.9024869978333805  0.8482210418763583  0.3444604545132509
  0.6730299302276040  0.0498227890606943  0.6237319503744538
  0.2503670448761164  0.9921786324592214  0.9161318732250430
  0.8058758875325901  0.0429297752402219  0.7786341906203774
  0.9228214272859904  0.7905890095490060  0.6221815617255622
  0.1355252374892774  0.8636884138898885  0.6991238114568191
  0.7744874787209129  0.6012325386475652  0.4501701098542363
  0.8828083676991352  0.4901719249827941  0.3736801506869450
  0.1037133624530319  0.0342983133046332  0.7809425604065410
  0.8631983612331983  0.3140932996988946  0.3919580115942644
  0.2400634663019344  0.0914672496503434  0.5508441334033952
  0.2100408230131748  0.0527250117410181  0.6520031089261760
  0.9384559977291327  0.6594918164549525  0.8888823301488431
  0.2641130628189693  0.4322179033767435  0.3387295871804117
