1-pos-1
1.000
11.0985002518  0.0000000000000000  0.0000000000000000
0.0000000000000000  14.4173002243  0.0000000000000000
0.0000000000000000  0.0000000000000000  26.7964000702
Pt  H  C  O  
96  166  6  81  
Direct
  0.0000000000000000  0.0000000000000000  0.0018699899937576
  0.1249999521128992  0.1666699702868031  0.0018699899937576
  0.2499999943280624  0.0000000000000000  0.0018699899937576
  0.3750000365432257  0.1666699702868031  0.0018699899937576
  0.4999999886561249  0.0000000000000000  0.0018699899937576
  0.6250000308712881  0.1666699702868031  0.0018699899937576
  0.7499999829841874  0.0000000000000000  0.0018699899937576
  0.8750000251993506  0.1666699702868031  0.0018699899937576
  0.0000000000000000  0.3333300219343480  0.0018699899937576
  0.1249999521128992  0.4999999922211510  0.0018699899937576
  0.2499999943280624  0.3333300219343480  0.0018699899937576
  0.3750000365432257  0.4999999922211510  0.0018699899937576
  0.4999999886561249  0.3333300219343480  0.0018699899937576
  0.6250000308712881  0.4999999922211510  0.0018699899937576
  0.7499999829841874  0.3333300219343480  0.0018699899937576
  0.8750000251993506  0.4999999922211510  0.0018699899937576
  0.0000000000000000  0.6666699625079541  0.0018699899937576
  0.1249999521128992  0.8333300141554991  0.0018699899937576
  0.2499999943280624  0.6666699625079541  0.0018699899937576
  0.3750000365432257  0.8333300141554991  0.0018699899937576
  0.4999999886561249  0.6666699625079541  0.0018699899937576
  0.6250000308712881  0.8333300141554991  0.0018699899937576
  0.7499999829841874  0.6666699625079541  0.0018699899937576
  0.8750000251993506  0.8333300141554991  0.0018699899937576
  0.0000000000000000  0.2222199683821562  0.0864100026098289
  0.1249999521128992  0.0555599860957249  0.0864100026098289
  0.2499999943280624  0.2222199683821562  0.0864100026098289
  0.3750000365432257  0.0555599860957249  0.0864100026098289
  0.4999999886561249  0.2222199683821562  0.0864100026098289
  0.6250000308712881  0.0555599860957249  0.0864100026098289
  0.7499999829841874  0.2222199683821562  0.0864100026098289
  0.8750000251993506  0.0555599860957249  0.0864100026098289
  0.0000000000000000  0.5555599783168760  0.0864100026098289
  0.1249999521128992  0.3888900080300730  0.0864100026098289
  0.2499999943280624  0.5555599783168760  0.0864100026098289
  0.3750000365432257  0.3888900080300730  0.0864100026098289
  0.4999999886561249  0.5555599783168760  0.0864100026098289
  0.6250000308712881  0.3888900080300730  0.0864100026098289
  0.7499999829841874  0.5555599783168760  0.0864100026098289
  0.8750000251993506  0.3888900080300730  0.0864100026098289
  0.0000000000000000  0.8888900002512240  0.0864100026098289
  0.1249999521128992  0.7222199606033073  0.0864100026098289
  0.2499999943280624  0.8888900002512240  0.0864100026098289
  0.3750000365432257  0.7222199606033073  0.0864100026098289
  0.4999999886561249  0.8888900002512240  0.0864100026098289
  0.6250000308712881  0.7222199606033073  0.0864100026098289
  0.7499999829841874  0.8888900002512240  0.0864100026098289
  0.8750000251993506  0.7222199606033073  0.0864100026098289
  0.2529631686267400  0.4436832177995779  0.1699594532948025
  0.4964286035499642  0.4431685295372434  0.1699192554325084
  0.1251450692785936  0.6201200765612886  0.1720999293456802
  0.8732832875169859  0.2795404876640611  0.1729722975010577
  -0.0051758679368128  0.4459801978572022  0.1728805230614480
  -0.0000684351833823  0.1147584097133089  0.1679241344961161
  0.1331323718500040  0.9525490819670286  0.1700780506993671
  0.3738107772198447  0.9490519229972084  0.1739780856602655
  0.8892134107128047  0.6131181302794284  0.1722897180294839
  0.4951644073989820  0.1085316146543638  0.1700464299817416
  0.2446123425513909  0.1183711304716802  0.1733578760479123
  0.2468979346966797  0.7835752885661020  0.1690199926868832
  0.7480698623450023  0.1156688991458502  0.1707111981466195
  0.6200501540813057  0.2772034620714880  0.1724502186186949
  0.3721460144788605  0.6150703338863536  0.1736245236416667
  0.0015446279326993  0.7870433660925537  0.1694121440084216
  0.7569513933323997  0.7773028983340126  0.1728634743683847
  0.6330133342440187  0.9488644474672584  0.1709688819430216
  0.8787488769411211  0.9451545410792477  0.1712959851687175
  0.7491329552073093  0.4479903997222610  0.1712968476129242
  0.3763867249110981  0.2808354576244239  0.1728056215263634
  0.1256076235682300  0.2840707071353818  0.1725285141693846
  0.5009425829582967  0.7728451782407820  0.1710484025202043
  0.6367700452278507  0.6122060218197714  0.1756565095038480
  0.3755418768066455  0.5039688208374518  0.2552747167820944
  0.1240377623072750  0.5084297623867995  0.2562268313024464
  0.0074918688573724  0.0118119063451957  0.2520849677905851
  0.8870531260566763  0.1821246399637549  0.2569320629100689
  0.7593244789568045  0.3408168887832515  0.2575914627568285
  0.0074794186977233  0.6776035201954271  0.2606117137714416
  0.6247315265840070  0.8401245229730997  0.2526844190959067
  0.2527210288025269  0.6765656831547042  0.2630545910507966
  0.7525983424152576  0.6847184697632460  0.2605762549300483
  0.0022385975885319  0.3461137182528416  0.2562869969364785
  0.1394753445132322  0.8496758175537524  0.2555019007614369
  0.6255789853204677  0.1700391353277120  0.2595442665201293
  0.2533248659830426  0.0124566706114161  0.2581752765213273
  0.3866851943715517  0.1706738671955118  0.2622642695395295
  0.8765895831846413  0.5149442659511837  0.2623798408920950
  0.5107606690084663  0.0015518428868042  0.2570190214826344
  0.3846247052170563  0.8442424095591011  0.2569800001888315
  0.5090034363862624  0.3419569534794348  0.2614323970774972
  0.1420376837081508  0.1770194886278657  0.2586045789003731
  0.7579575372299221  0.0262766255475126  0.2605755595493274
  0.8874917848024119  0.8491226682417502  0.2598867634068737
  0.2668566702622417  0.3347891353517508  0.2585282737215191
  0.6350933986109367  0.5094026822110228  0.2648815601239463
  0.4946409565751594  0.6668182578730182  0.2723749035011898
  0.7185830391639222  0.7496079221187700  0.3792512870824647
  0.7782167941023571  0.6525061646315792  0.3985125554859764
  0.1317105066031711  -0.0626709864636858  0.4090803309617173
  0.0676901112632905  -0.0236721035277304  0.4584481834730388
  0.7605211463081294  0.7791107148804192  0.7498426008553779
  0.6255643085266394  0.7486779247620249  0.7452085873022629
  0.6593163802751845  0.5005129696777442  0.8559159009200752
  0.6594108324963149  0.5051282323735885  0.9136895606521396
  0.4088080860082104  -0.0710984364931451  0.7863620269997980
  0.2734026766010908  -0.1040457815098896  0.8012272749493904
  0.0417626755853636  0.5547639512576173  0.9202529612074100
  0.0435251369230410  0.4480215228863083  0.9126361573880425
  0.1058794254214138  0.6540304711909279  0.7958033306277935
  0.0988994363199641  0.7390991859862840  0.7589921970197022
  0.5220038267116669  0.0494285271315143  0.3498485208923823
  0.4217762164523808  0.1048950306001848  0.3752121512240490
  0.5768964750585635  0.2451797384396652  0.8041453146672314
  0.6999327308696615  0.2235350783268075  0.8373225465853606
  0.7139980563062837  0.1431508375001746  0.7731268798915709
  0.7831037024475819  0.1043332350300025  0.7250149389098518
  -0.1413921138439848  0.1487829735822920  0.8833815142364876
  -0.2347235605078711  0.2008009928738625  0.9150587922654861
  0.5102808505573979  0.4622002898412654  0.6476213143943583
  0.3631154411647999  0.4622719319645430  0.6428972227488997
  0.5428284607123298  0.3156162304805532  0.5269312737684698
  0.5282912510858461  0.3045112739277203  0.4681903605683240
  0.5367355829661647  0.8284525100176942  0.3486546810924020
  0.5789252285558073  0.8717268652571331  0.4018060745172192
  0.5057005368531428  0.7162122565496722  0.5742129781272950
  0.5955313600797588  0.7855672290718283  0.6051173639302578
  0.2304171613984735  0.1735132299030319  0.3633177255935534
  0.2228368143703825  0.1151687401016592  0.4120582856231997
  0.6575860138865469  0.5289295895320963  0.4780276599708341
  0.5673424782216663  0.4457803735381425  0.4956480079714256
  0.0964140891132074  0.2392716222615452  0.7063862271802065
  0.1820869990134247  0.3217988920061668  0.6959859956091783
  0.9567756499962959  0.4465551364706071  0.7789516290067918
  0.0212119052357384  0.3689090484455272  0.7549537171673153
  1.0249227823872094  0.0672794250108706  0.3888777999880871
  1.0253676456559377  0.1241730734914290  0.3350613360256861
  0.5891340903686115  1.1149188159935433  0.9132923199305458
  0.5769386685702431  0.0558990772933793  0.8666457506217801
  0.4005654036074813  0.2900380965190747  0.9169938847840392
  0.4569072420823315  0.2096270240114764  0.8816748844772591
  0.4163997338064195  -0.1065993304911301  0.8757544118098713
  0.4899097335622587  -0.1317250887166156  0.9279111294599512
  0.1328893220469855  0.7457246763842020  0.5437272102980382
  0.0104365359257630  0.7077177950697355  0.5289004204509259
  0.0293011114314529  0.4609864430441720  0.3977011723881334
  0.1581141327645052  0.4485700176999678  0.3753778549263511
  0.1381020918886240  0.5822799851147301  0.4066372147435502
  0.2111340192671491  0.6619690114459955  0.4429904980595180
  0.9168463277324047  0.1060443931814031  0.6728118050995138
  0.8398988563511707  0.1728768715240522  0.6401623581697765
  -0.0868300852400040  0.3291103034049759  0.8871012073347724
  -0.0030910422599158  0.3599396725992753  0.8428606909895052
  0.7071244285485487  0.4980662837621284  0.6413075485393638
  0.6440720582441460  0.4999564881191180  0.5858781463506797
  0.4626442476556452  0.8574657005452091  0.5499459696300172
  0.4932151936305278  0.9162009302987475  0.4971373859362062
  0.2698093835799429  0.6004219290522748  0.6332163266949372
  0.2075899133602613  0.5271054485423934  0.5990920996903962
  0.4986493426445101  0.0079861132673049  0.6875921150763175
  0.5347589821550379  -0.0284435628529689  0.6332061868030380
  0.8396069084999755  0.1267750099785928  0.5128249999328151
  0.9744789225864943  0.1764889218032180  0.5167745826947808
  0.8617992327340589  0.0594116204888553  0.3500530994546384
  0.8143236471913596  0.9517672745464546  0.3409946520973778
  0.8565071961464601  0.5916549849341962  0.7843221814363340
  0.7807151577074309  0.5092060250383282  0.7754816022734842
  0.8612682027871034  0.5349183024018245  0.7016166363894594
  0.8940861022722997  0.4938247262965405  0.6491047536658971
  0.2272228672419950  0.3528064643772073  0.4658098623770413
  0.3403779139877318  0.3579806467719296  0.5033381257320261
  0.7098623775245891  0.7881857052436966  0.6800867043206518
  0.8065205694299338  0.7732753412396456  0.6376319733821796
  0.5474607111455956  0.4761113194015683  0.7893092451482472
  0.6235354989677668  0.3804234064263787  0.7983871965545081
  0.6471761649809471  0.0012766100458239  0.4645740568093812
  0.5517567702002654  0.0017756150806135  0.4251081586167323
  0.0941022497909676  0.9557468898494151  0.5269711993367251
  1.0033233755068860  0.8737829397605992  0.5308656603623334
  0.6696258158479271  0.2404431892843038  0.4222415865026138
  0.5547229168464900  0.1953757455194260  0.3982458164135161
  0.3330191484385978  0.6718499768752852  0.9040228382483317
  0.2078952922784129  0.7410432498237534  0.9107838048418062
  0.7422547066630865  0.8530369878939749  0.8688696633952826
  0.7952735514754353  0.8685017342356102  0.9180114890416471
  0.1938554142800565  0.5532338879200432  0.8457647923425278
  0.1115414381505488  0.4922144534896477  0.8126888833928901
  0.8471539348188168  -0.0013220475472845  0.5057453977174796
  0.7512891389940438  0.0165383095579933  0.5491633818105689
  0.3304546473209460  0.2145848019024803  0.6680855461629321
  0.3840928650074709  0.3087786184404123  0.6800667788829585
  0.3115347976983861  0.5094851787520877  0.7750545637843579
  0.4023179864663091  0.4919592973617480  0.7289790006577628
  0.4831021204536546  0.0829360575903562  0.7642178253142926
  0.6174013801629348  0.0343411101868789  0.7558736687106352
  0.5528534426446370  0.6223494449104214  0.8914562758736162
  0.5095302593503879  0.7309103325488692  0.8956787318529114
  0.2593707836816179  0.2240851159189105  0.8842993568286107
  0.1167884943454212  0.2356871634935369  0.8939472031520991
  0.8998920789933030  0.3480170053505016  0.6079879064135201
  1.0024241457034373  0.3696882762014330  0.6445498032441895
  0.0770630886151745  0.0925121050022913  0.7402263002730259
  0.1137410053214412  0.0726403414652377  0.6837330575936297
  0.0521238656913286  0.4474348914318460  0.5792416731515142
  0.1498416494544193  0.4489982953250388  0.5359505110976204
  0.3860461012473389  0.2235831532152552  0.7583083589163750
  0.3606717048865040  0.2261228015357006  0.8134725562200231
  0.8355148577841472  0.2369015405840889  0.5573478299202199
  0.7306872526208902  0.2693584934268476  0.5926240426063871
  0.3124444992860724  0.1427776998172308  0.5925987879117928
  0.4040113190674370  0.1036714726506689  0.6305808727938537
  0.0183363839962967  0.5576406916080814  0.5135336912887528
  1.0505345489818803  0.6183581823505275  0.4676458037748080
  0.4838409449987701  0.5761653491060125  0.5286305560332781
  0.3995567733289728  0.5922426261685599  0.5741488640972201
  0.4142882798650458  0.7296076263203936  0.7866625826557405
  0.4664161493946401  0.6311337150254699  0.7651862589894137
  1.0382426526350856  0.8343423051512434  0.8993448283450759
  0.1122645370303905  0.7976480850982871  0.8514222266323147
  0.4198501895374800  0.7501083408717789  0.6425939344385778
  0.4001052444702887  0.7190847269883610  0.6998168522403329
  0.8392531121751647  0.6936348724045208  0.8420656331032151
  0.9290240517972468  0.7310971388758583  0.8013703698274320
  0.2034372757646974  0.1876196298278400  0.5181581147290419
  0.1744053030395769  0.0797596432209853  0.5287174240190488
  0.2098158626452553  0.8355855569613007  0.3477662990060906
  0.1384169424919236  0.7664052891939055  0.3780857188935224
  0.5422775511604733  0.3252561042667528  0.6107548316014468
  0.5097881273717484  0.2296001889882764  0.5886707204316742
  0.3385729609179013  0.7886739776588145  0.4902719087594943
  0.3633716908954371  0.6889799779960042  0.5114559840051570
  0.8709433771767768  0.7759815844539082  0.3618027135884466
  0.9897720115579048  0.8452377955728994  0.3487100588855426
  0.7293056787188205  -0.0826073294632959  0.6108438427780882
  0.7492129221109326  0.0158802491616364  0.6352585184168340
  0.2094257422234174  0.0638423071573853  0.9051537224201089
  0.1797625327148528  0.9545436319696381  0.9041716140536472
  0.8949067635502523  -0.0369674903697774  0.8577424096179518
  0.8522473074563344  0.0399136067188293  0.8169475564870758
  0.9384746345625161  0.6585678673318325  0.6522226540622610
  0.9958949756303686  0.7195648312583915  0.6105826152556724
  0.0763983162105603  0.7772694967198055  0.6685258426605620
  0.2215736416369560  0.7652885440370790  0.6857011080318169
  0.8237308868121425  0.4988635504432110  0.4219455595296168
  0.8446242527119531  0.5849316783516902  0.4553135141264122
  0.8897867754788206  0.4140382536765705  0.3397424713636936
  0.8861304995154605  0.3377710286487732  0.3850118322600114
  0.0668015089317818  0.0325277684520695  0.8165037068965025
  0.1510168081699299  0.1136535549865445  0.8111777417136378
  0.8771287410045486  0.1886089199361198  0.3919117962706853
  0.8520527565754936  0.2238981203817394  0.4519748484263321
  0.3067125013352968  -0.0583808119068885  0.5355466559726166
  0.2228598665210511  -0.0340557362586128  0.5814321325470386
  0.2991847621629298  -0.0345707961439223  0.6569305862796299
  0.1767983831492694  -0.0832600080059914  0.6695570076725641
  0.8403590878134506  0.5782367344857567  0.8923621708534047
  0.8963647852768705  0.6644264605625980  0.9232758581072843
  0.4943480239873106  0.3474265231057293  0.3603426408138387
  0.6867159249434545  0.4141629614007649  0.3555816113708622
  0.6832546943691911  0.5896287398990293  0.3573699566700239
  0.3015355071652349  0.5742473080463283  0.3661448384296634
  0.4996523156361262  0.6684148193610839  0.3709371598408820
  0.4259857203439019  0.5152189873926728  0.4005024418311687
  0.5000538876953130  0.4011249906173600  0.3330283877021319
  0.6083941529581792  0.4562299547673713  0.3430432755003792
  0.3829716978841939  0.4600643723864775  0.3307558294278687
  0.6027091773607091  0.5551781967756466  0.3432489439627682
  0.3898600842936640  0.5428079135655209  0.3650243438139187
  0.4895440989712840  0.6104205628018192  0.3452690181353508
  0.7856116800453194  0.7063513269381505  0.3733182694277238
  0.1047165423374667  -0.0038652778975965  0.4249014513394306
  0.6853767054486772  0.7980579261647887  0.7342348370772460
  0.6848001513508422  0.5411400163083444  0.8843026712066528
  0.3579461406378485  -0.1134818863411327  0.8095036699061382
  0.0986810353157738  0.5007768161566840  0.9238143247319877
  0.0933373726177096  0.7232702537278465  0.7935935398482532
  0.5050458134098720  0.0825960159789776  0.3802743217710119
  0.6704340231909458  0.2515368219000986  0.8071809470278059
  0.7560204489466189  0.0882655068564882  0.7588238424016124
  -0.1847891158868406  0.2053411812296320  0.8843018541715308
  0.4291259213268543  0.4303631492699427  0.6622611622310931
  0.5042816206173706  0.3455077906544639  0.4991724321423062
  0.5822344054686107  0.8164109699096932  0.3807240276109169
  0.5101934709224926  0.7794384849432243  0.5950806430388164
  0.2736569902593296  0.1640384338125848  0.3955586882055717
  0.6047013181453537  0.5087747960631889  0.5063430405895836
  0.1001522653585313  0.3088032265705393  0.6986181794030916
  1.0120963357349317  0.3991829312189709  0.7893082984464539
  0.9920907543534303  0.1194776992988390  0.3675058236629208
  0.5476190090831674  1.1114394740904416  0.8814311206551453
  0.3911104369075453  0.2584148686881417  0.8837323784710628
  0.4821125183046419  -0.1494851836315034  0.8913425500002894
  0.0503504112196933  0.7463058311198076  0.5551967614950213
  0.1146999239012983  0.4820399622175051  0.4041910195707554
  0.1428600939521402  0.6469781732351269  0.4214647431712161
  0.8293617064167880  0.1148879550769306  0.6614478421976968
  -0.0131447275659015  0.3617555161200944  0.8812436443453857
  0.6325686739306399  0.4835263716954655  0.6208465610797187
  0.4303814462251612  0.8946813879799245  0.5202764492908224
  0.2844297184106498  0.5422010060402651  0.6157648601033463
  0.4713657872514389  0.0000840607798371  0.6515725309914618
  0.8870483836051013  0.1850966121730719  0.5064853745855684
  0.7896658745652234  0.0187663915636560  0.3425958578409701
  0.8612857072152326  0.5344165212023315  0.7659962637155387
  0.8466268840401271  0.5475250161188391  0.6647490665923264
  0.2537915229441181  0.3594950584204573  0.5009763631096513
  0.7225119775169152  0.7930747102309963  0.6426081123019850
  0.6227362110731199  0.4496648127832661  0.8002020494740270
  0.5868783711424089  -0.0361831892645718  0.4510531959306499
  1.0076999328162506  0.9414009789727453  0.5204433747990355
  0.5826958837750305  0.2541515534804580  0.4141944026445176
  0.2491376125482857  0.6808941834792530  0.9191061391373001
  0.8154305657588486  0.8746917389113524  0.8819548269016275
  0.1654935900192561  0.5428805013304782  0.8119661605588802
  0.7685016291923493  0.0269876952374342  0.5113575758050596
  0.3323715057628377  0.2630313355830892  0.6955725763300594
  0.3967749139966731  0.5168893316683237  0.7633739128543816
  0.5270800523387162  0.0263152848867320  0.7558638267468152
  0.4854336854861285  0.6634815907126216  0.9040043110432333
  0.1768599094171892  0.1909860372303990  0.8820003077534138
  0.9521788616336767  0.3980068184907764  0.6176404821409458
  0.0678136122921595  0.1150300854319985  0.7058701091545103
  0.1108370643412377  0.4846353126102876  0.5603890740234019
  0.4237708900927593  0.2064442132573064  0.7901036689568270
  0.8178256557707347  0.2652408995655544  0.5911480928819320
  0.3720436803459388  0.1635097507317433  0.6161472794273283
  0.9807476806908801  0.6057148666142866  0.4921119897655558
  0.4443523634195679  0.6215333955310675  0.5481880739023599
  0.4668559875429708  0.7012873819578729  0.7600623652111337
  0.1229420875832934  0.8350568380901244  0.8837201750967608
  0.3572628670217786  0.7305535242269250  0.6687334212937154
  0.8449174382528980  0.7157142261911245  0.8069564162406764
  0.1330393250620082  0.1435730109865629  0.5220769003653551
  0.1438128397340115  0.8331962323745837  0.3714195847287824
  0.5665057791191462  0.2806575268287763  0.5857774751301825
  0.3015409069488669  0.7282810701481245  0.4925381156320933
  0.9017433524477202  0.8399836294515389  0.3464994744658140
  0.6932655496180326  -0.0228484147499948  0.6141954655096759
  0.2390648837593785  1.0015818892750503  0.9150121246236863
  0.9225967549389680  0.0255345127154605  0.8420115443750201
  0.9558530548016579  0.7231781324236262  0.6415439416251293
  0.1391361783633383  0.7948852876341083  0.6948020501569202
  0.7790621014670597  0.5550288151600533  0.4333837851120471
  0.8862970079407498  0.4083288773356892  0.3786051108216746
  0.1270077391376719  0.0580030868532879  0.7905389498852147
  0.8265032356702694  0.2281546901725637  0.4145296667574755
  0.2315881421440830  -0.0261414167934690  0.5441032088080472
  0.2094684587246783  -0.0289980514240348  0.6491450643940982
  0.9136671990934450  0.6145445260664384  0.9005505945455862
  0.2835082657667810  0.4072085739190498  0.3362888518753460
