1-pos-1
1.000
11.0985002518  0.0000000000000000  0.0000000000000000
0.0000000000000000  14.4173002243  0.0000000000000000
0.0000000000000000  0.0000000000000000  26.7964000702
Pt  H  C  O  
96  166  6  81  
Direct
  0.0000000000000000  0.0000000000000000  0.0018699899937576
  0.1249999521128992  0.1666699702868031  0.0018699899937576
  0.2499999943280624  0.0000000000000000  0.0018699899937576
  0.3750000365432257  0.1666699702868031  0.0018699899937576
  0.4999999886561249  0.0000000000000000  0.0018699899937576
  0.6250000308712881  0.1666699702868031  0.0018699899937576
  0.7499999829841874  0.0000000000000000  0.0018699899937576
  0.8750000251993506  0.1666699702868031  0.0018699899937576
  0.0000000000000000  0.3333300219343480  0.0018699899937576
  0.1249999521128992  0.4999999922211510  0.0018699899937576
  0.2499999943280624  0.3333300219343480  0.0018699899937576
  0.3750000365432257  0.4999999922211510  0.0018699899937576
  0.4999999886561249  0.3333300219343480  0.0018699899937576
  0.6250000308712881  0.4999999922211510  0.0018699899937576
  0.7499999829841874  0.3333300219343480  0.0018699899937576
  0.8750000251993506  0.4999999922211510  0.0018699899937576
  0.0000000000000000  0.6666699625079541  0.0018699899937576
  0.1249999521128992  0.8333300141554991  0.0018699899937576
  0.2499999943280624  0.6666699625079541  0.0018699899937576
  0.3750000365432257  0.8333300141554991  0.0018699899937576
  0.4999999886561249  0.6666699625079541  0.0018699899937576
  0.6250000308712881  0.8333300141554991  0.0018699899937576
  0.7499999829841874  0.6666699625079541  0.0018699899937576
  0.8750000251993506  0.8333300141554991  0.0018699899937576
  0.0000000000000000  0.2222199683821562  0.0864100026098289
  0.1249999521128992  0.0555599860957249  0.0864100026098289
  0.2499999943280624  0.2222199683821562  0.0864100026098289
  0.3750000365432257  0.0555599860957249  0.0864100026098289
  0.4999999886561249  0.2222199683821562  0.0864100026098289
  0.6250000308712881  0.0555599860957249  0.0864100026098289
  0.7499999829841874  0.2222199683821562  0.0864100026098289
  0.8750000251993506  0.0555599860957249  0.0864100026098289
  0.0000000000000000  0.5555599783168760  0.0864100026098289
  0.1249999521128992  0.3888900080300730  0.0864100026098289
  0.2499999943280624  0.5555599783168760  0.0864100026098289
  0.3750000365432257  0.3888900080300730  0.0864100026098289
  0.4999999886561249  0.5555599783168760  0.0864100026098289
  0.6250000308712881  0.3888900080300730  0.0864100026098289
  0.7499999829841874  0.5555599783168760  0.0864100026098289
  0.8750000251993506  0.3888900080300730  0.0864100026098289
  0.0000000000000000  0.8888900002512240  0.0864100026098289
  0.1249999521128992  0.7222199606033073  0.0864100026098289
  0.2499999943280624  0.8888900002512240  0.0864100026098289
  0.3750000365432257  0.7222199606033073  0.0864100026098289
  0.4999999886561249  0.8888900002512240  0.0864100026098289
  0.6250000308712881  0.7222199606033073  0.0864100026098289
  0.7499999829841874  0.8888900002512240  0.0864100026098289
  0.8750000251993506  0.7222199606033073  0.0864100026098289
  0.2595226150247516  0.4555611155360326  0.1751526042044561
  0.5097604257910821  0.4437355435809838  0.1710671645478902
  0.1342786254438565  0.6137947242220002  0.1707834442205297
  0.8808606433211056  0.2850289621196759  0.1682323915484948
  0.0049056803410145  0.4500352922639526  0.1674787884619945
  0.0045620194757205  0.1167217204066863  0.1714461969616992
  0.1291166376256639  0.9537665670805323  0.1719182707203706
  0.3974271678179789  0.9582173035430946  0.1724126489937690
  0.8787141208487439  0.6156146976006341  0.1712183510165721
  0.5050986233559640  0.1216139737760874  0.1748355893077631
  0.2602900731142911  0.1207479025903772  0.1722028858694212
  0.2529519326491601  0.7926174296932096  0.1760371664493063
  0.7580573122603206  0.1120095300351843  0.1703927812220457
  0.6334219623016037  0.2784513844369857  0.1706968898029988
  0.3823268378997253  0.6183569650213655  0.1730147326900018
  0.0066798665691769  0.7896323407978932  0.1691176175317559
  0.7586046235512327  0.7833900464432045  0.1739314069647421
  0.6360697361479155  0.9559745806756398  0.1724630248388998
  0.8775406036252895  0.9489716564853098  0.1722108200135391
  0.7548657585732127  0.4491280115389558  0.1697571147200016
  0.3790343237788130  0.2902846156207584  0.1723557065165705
  0.1367859951666699  0.2846122526382521  0.1727914483949352
  0.4986594274935852  0.7799315479917429  0.1696235878846570
  0.6311252747382670  0.6190286456584710  0.1737234974625177
  0.3878133054600720  0.5090257957194145  0.2555820116082064
  0.1322334696493771  0.5131141389100941  0.2574626192184817
  0.0129509344901522  0.0114006128639095  0.2605745077438637
  0.8884445302509048  0.1836231472060184  0.2562644441346687
  0.7660315272255945  0.3499613891993411  0.2585368493025448
  0.0132125026510872  0.6830241254186074  0.2544214530921920
  0.6350634390585237  0.8421795439922266  0.2554439826531860
  0.2537099529229926  0.6731925920528048  0.2562985795333642
  0.7641446446446256  0.6807848776955430  0.2580448419670274
  0.0097466131500476  0.3545343282638185  0.2534707185072008
  0.1313461832253936  0.8509625882466961  0.2620518413258482
  0.6398220537363434  0.1830868219384785  0.2563379389360166
  0.2641200296521671  0.0135053538853148  0.2580078686460811
  0.3883756253824406  0.1794685678209651  0.2536906104809198
  0.8898341773879130  0.5151661548312257  0.2563408856527321
  0.5161768911498543  0.0089270662258300  0.2624222744763459
  0.3928970698624605  0.8454729603989940  0.2598473205116627
  0.5161094627601601  0.3402456945740805  0.2608010603734743
  0.1363947887152130  0.1832518774317385  0.2571056671810834
  0.7691760237889332  0.0163769337481119  0.2631678113860675
  0.8850822367649946  0.8451303130986573  0.2643739326342699
  0.2565738914623322  0.3452035001332327  0.2633729777287702
  0.6393784636126055  0.5111320005585714  0.2620540228427627
  0.5097119567468152  0.6795800808868642  0.2663851951306802
  0.7140687817720845  0.7574883843781676  0.4046021477883943
  0.8060601544383522  0.6676782582827414  0.4031771568343868
  0.1011033135056256  -0.0299029522443708  0.4234307681433014
  0.1581109380896216  0.0367723259106745  0.4664275432616615
  0.7072761024019351  0.8284110768928576  0.8250524350390843
  0.5796531974900504  0.8626316436511499  0.7987381126430634
  0.6061196585826075  0.5533718520027116  0.8627896910641789
  0.6658312001120604  0.5340328239348864  0.9181995019831916
  0.3573099680073298  0.0579119441442122  0.7963858907126968
  0.3735297408429257  -0.0066553278982341  0.8467753303449856
  0.0404918363566388  0.5361298966620702  0.9116716667089851
  0.1123445904682283  0.4393621401199304  0.9081562716987144
  0.0939406759152802  0.7271656705483509  0.8083394129791529
  0.0489990617887134  0.8110808401832914  0.7763601810093712
  0.6021152228217674  0.1207695750807283  0.3560766972952866
  0.4684072018880990  0.1522303367103921  0.3701287835872341
  0.6286348076775921  0.3830112222254224  0.8373317836731542
  0.7476253452491722  0.3259224874696085  0.8457032303791417
  0.6690285743964143  0.2649875161689983  0.7891012607441705
  0.7343302428972964  0.2102055809722270  0.7405156919666745
  -0.1342972800454066  0.1985788785596996  0.8882074081237717
  -0.1997702311571704  0.2785008690068358  0.9203789324606813
  0.4547950363186565  0.5941179580739350  0.6648120631812554
  0.3330553931645404  0.6332158077635685  0.6423992433611819
  0.5081870157803765  0.4184279475246136  0.5216792271080487
  0.5340498253751637  0.3946936221948784  0.4677627805213779
  0.5389908006020738  0.8851209174302663  0.3475315397144126
  0.6240476268292838  0.9294663527790015  0.3838370585248256
  0.4980499578583610  0.7978661213360774  0.5779261265815403
  0.5383330635804600  0.8761127043057938  0.6161240397011573
  0.2848371486036857  0.1116888678079937  0.3393352248316440
  0.2632747241886223  0.0805569097147930  0.3948904153273833
  0.6600405228816323  0.6019973471989898  0.4647352051497809
  0.5290416606016407  0.5536922626640790  0.4765173359051396
  0.0653331262737414  0.3148068750313039  0.7060567946192330
  0.1635949207736900  0.3941833484691777  0.6996512784808585
  0.9243720054460628  0.4628290214039695  0.7942928836649937
  0.0454494122228984  0.4196810508739875  0.7668582822904028
  1.0022841916677785  0.1009828564467373  0.4043366217370830
  1.0168548085287163  0.1482928648316890  0.3490521297075928
  0.4835291956252961  1.1167337942414051  0.9117536094249562
  0.5420162980691351  0.1101719219401995  0.8590944779818023
  0.4462660916187050  0.2718016037839887  0.8806238701348018
  0.4067296431306460  0.3602323096418811  0.9082103089722364
  0.6725883882905116  0.0962327703325165  0.8070647004240890
  0.6512635760338632  -0.0108351255900676  0.8271600331474888
  0.2139999049254245  0.8794676385547509  0.5154186240135844
  0.1356973461757362  0.8075676923184346  0.4843306987878964
  0.0650870278155684  0.4970790647489590  0.4043073500364834
  0.1959592807007662  0.4944160719345838  0.3729358388074481
  0.1549811793013235  0.6366743192410473  0.4095998131221393
  0.2653144462219059  0.7083651954189540  0.4252143298633381
  0.9191800401721372  0.1988571470106290  0.6929875126566358
  0.8264287952070305  0.2513648049925349  0.6552811171425739
  -0.0012427532447695  0.3013716276835707  0.8853265959587883
  0.0764309670905692  0.3562345525789565  0.8477276385480705
  0.6576576974007110  0.5765849969531039  0.6538148415534251
  0.5768587041444320  0.6084465293519205  0.6070509069682877
  0.4403959608423027  0.9358273747368731  0.5468622154173797
  0.4885093004634282  0.9957130505962671  0.4996529329993717
  0.2421532737239992  0.7353112558987942  0.5622845402116563
  0.2106678239990847  0.6251663113880682  0.5725941013047982
  0.4232759578248514  0.1493090673225899  0.6909239546915681
  0.5231233818603894  0.1322756382630988  0.6461473100282299
  0.8608419170104072  0.1690628310487544  0.5185467519628763
  0.9712710358457406  0.2456659941665303  0.5311117133165634
  0.8501760866356409  0.0655098747273161  0.3566253896928280
  0.8097365036994502  0.9564268628088098  0.3529363504584149
  0.7995850849271950  0.6104365402592083  0.7774903001791353
  0.7176294951660939  0.5217188512397233  0.7837270599551567
  0.8203739275694774  0.5668076777042190  0.7098640304021266
  0.8649219173593423  0.5592547640167824  0.6531267428143520
  0.1989211412814035  0.4530554429664129  0.4557690505778766
  0.2919709922225259  0.4189326465727568  0.4935272304695552
  0.5650818244458616  0.8594266784648025  0.6988079147998867
  0.6911269217979222  0.8507712026088116  0.6768268623131001
  0.4938745806858927  0.5908329559332308  0.7880211786837379
  0.5072294834869231  0.4894656243896472  0.7845852128391171
  0.6627456171753527  0.0411275402173148  0.4762999011682072
  0.5673704787886753  0.0693054429508153  0.4315478136318813
  -0.0009364293250626  0.8594406580308005  0.5409982232770791
  0.8969534499839725  0.8590801582757049  0.5767668554250185
  0.7017196865798966  0.3176170010167304  0.4261099028222852
  0.5836855551315923  0.2613771344269113  0.4232282130244876
  0.3274386337659100  0.6956681225514930  0.9100819765495456
  0.2268662547529015  0.7628630724469777  0.9148517135054488
  0.5215372083233708  0.8641409316219534  0.8678002161290480
  0.4833353900073116  0.9021130201810360  0.9186759996905907
  0.1976137479696227  0.6116935253616934  0.8507430867944140
  0.1187541939719506  0.5566076027032049  0.8118649789116105
  0.8242240712853428  0.0112213158832138  0.5454950841906467
  0.7374153136296637  0.0928618269697580  0.5674866506195771
  0.3129577754378728  0.3684138618579603  0.6661584505543907
  0.3127871943271779  0.4806762334476165  0.6736148156659939
  0.3124030481990280  0.6488591981966721  0.7840414139011319
  0.3696039844603971  0.6527061388469418  0.7295437983641843
  0.3919175494810254  0.2346282716301165  0.7622508224048750
  0.5114298121747960  0.1837228963599949  0.7595965657691451
  0.5552071347298142  0.6358212193812502  0.9072002854717253
  0.4964551573268992  0.7424929491554474  0.9116122371589027
  0.1984045936425394  0.2359379509324990  0.8858114193815602
  0.3189202761360431  0.1846398681296274  0.8719117411962725
  0.8942628376018936  0.4155448270545314  0.6154529748136018
  0.9968819123742068  0.4335906404975702  0.6568081765793937
  0.0947865736119963  0.1555084027189186  0.7455248761462044
  0.1300241732450253  0.1628154500551764  0.6876363096471141
  0.0368719361098929  0.5041134606082519  0.5785787288025173
  0.1344402834390176  0.4890713470137472  0.5344510610000424
  0.3959155159894105  0.4020005929911473  0.7432348093596497
  0.3892106824613010  0.3717658929766954  0.7992089894872270
  0.7871681980619947  0.2931592685485060  0.5754651403361029
  0.6900350369013090  0.3428600799315048  0.6078905922670985
  0.2443523588297586  0.2934907980252900  0.5880700079233585
  0.3527996174136195  0.2345722717558377  0.6229761314940467
  0.0162867665269173  0.6278549434271422  0.5275922884627421
  1.0654798672534278  0.6727381762538636  0.4756440261904505
  0.5565923799026931  0.6541466887541285  0.5292708208880741
  0.4346940915929204  0.6591508655055012  0.5588515400452532
  0.4159959129839374  0.9026048389952165  0.7755491768169026
  0.4249736387972823  0.7887758082427075  0.7657995118538637
  1.0601932024276570  0.8604753962666636  0.9126073857732740
  0.0886943289063178  0.8434880953372421  0.8560958276336401
  0.2890412582889049  0.8096798112398867  0.6456701289529174
  0.3647833870475778  0.8538898103439975  0.6892495149391219
  0.8112547874511009  0.7048712850948077  0.8464761340096945
  0.8790309299238646  0.7590511147263936  0.8051966334386409
  0.1680308900923388  0.2926206759147123  0.4994177508038719
  0.2072651189810013  0.1891038919342732  0.5229813808827568
  0.1786231098547282  0.8737510583061764  0.3563334111367719
  0.1377913693115406  0.8024959444417582  0.3983592218034953
  0.5387801400401100  0.4489241112834110  0.6098519232504513
  0.4583324518621334  0.3708882226914728  0.6009434419479396
  0.3950517694396508  0.8749304735597577  0.4739542940368261
  0.4504770340289123  0.8529624845276519  0.4228368960351708
  0.8536070995145049  0.7965826455249257  0.3608851217314962
  0.9905639681737165  0.8474923940410102  0.3624515610550634
  0.6606675265255589  0.0184182355135004  0.6613426479032163
  0.7205902317029670  0.1144318138509252  0.6660308343413531
  0.2207826094703734  0.0730104172156897  0.9072838020856786
  0.2101866903793297  0.9616585913035020  0.9097489471957286
  0.9093032021478086  0.0586507129937398  0.9132869918230528
  0.8102114783158759  0.0607332316160124  0.8729758308958329
  0.8313828453446680  0.7190428188994261  0.6690476570372458
  0.8942510001917015  0.8100203364022694  0.6826097362287770
  0.0829293344612690  0.9563213106959784  0.7540117202037727
  0.1357033517078791  0.8850803957867609  0.7114172479123505
  0.8685965818792972  0.5422135435609651  0.4187984259826077
  0.8818932895561804  0.6221654322895614  0.4633088741127807
  0.9287217149387639  0.4595449850682208  0.3503583895487767
  0.9142803931778345  0.3896699001614062  0.4015952730929532
  0.0068463061293058  0.0876938515138250  0.8195001081664363
  0.1438253542807384  0.0752901219446377  0.8175086950042129
  0.9173989709689542  0.2462455256509283  0.4109282964858277
  0.8821248138289833  0.2814191912617255  0.4644306794792198
  0.3164675888825932  0.0449881823232610  0.5137066289552997
  0.2069771026069438  0.0752699723260905  0.5477939057315485
  0.3037224933570010  0.0881967372821174  0.6455688097685163
  0.2208860322639002  -0.0015074959154536  0.6569653315177051
  0.8392332003587042  0.6125078810536289  0.8921355257748087
  0.9218055386484088  0.6620368464001675  0.9301450779770347
  0.5032302362649571  0.3410363220093605  0.3590769795454911
  0.6927622723487372  0.4232352809449985  0.3537756834860260
  0.6968288455681846  0.5966256214254314  0.3516248548318406
  0.3132673466792163  0.5889268128709062  0.3450565294695195
  0.5093376475783917  0.6816691138147654  0.3628713232160451
  0.3895348044434055  0.5528356402307621  0.3972862295498838
  0.5038760273031505  0.4029352533290992  0.3325952302231574
  0.6166793200270438  0.4582996127363235  0.3383093459102970
  0.3866756999445924  0.4566074799222422  0.3326896307207381
  0.6155357117005097  0.5569507193563256  0.3447615016158044
  0.3936914060430242  0.5522560311243417  0.3556508571947467
  0.5077079149938412  0.6143428329925091  0.3425124926279509
  0.7771388425117304  0.7312740796456496  0.3856467078797003
  0.1129110466972112  0.0325956680369273  0.4330098211589135
  0.6364720955477160  0.8724557038702243  0.8266698684326169
  0.6581463803648007  0.5771568913141648  0.8880337248346805
  0.3585262004616032  -0.0061214869654478  0.8092616248111625
  0.1158066347199972  0.5056002762232774  0.9202356413100065
  0.0253768937973688  0.7683456893704135  0.8045848170880472
  0.5527550702632134  0.1608432068711110  0.3779787555405163
  0.6952017773346121  0.3551869180242885  0.8187311516407081
  0.6779267237102357  0.2027598624652995  0.7695275812974565
  -0.1512710044879904  0.2665162671457486  0.8896866260782791
  0.3654593836894469  0.5973945456503231  0.6703408399688792
  0.4759313598378594  0.4280991148535002  0.4893337083208480
  0.5714603347034543  0.8735094083824183  0.3830389580656605
  0.4855186717976661  0.8632735138387736  0.5887740438591774
  0.3022068411230632  0.1325748947489094  0.3745840801601781
  0.5700159551894384  0.6134067587282545  0.4685291524163415
  0.0723278615928138  0.3830699113410568  0.7048837227992253
  1.0069661324364487  0.4358466134255100  0.7993827916467633
  0.9649911593832703  0.1382386712486434  0.3767720002967042
  0.4697271086473590  1.1381909654237456  0.8773279485121726
  0.4369151200508873  0.3393887474752627  0.8758043858584933
  0.6700500034312212  0.0552174408255865  0.8363481136155737
  0.1478373157881303  0.8356193829268014  0.5184086884808299
  0.1574376101777006  0.5137540020367876  0.4034345998745686
  0.1776950700505817  0.7019197860736333  0.4227969075927981
  0.8388371571366223  0.2139090617882820  0.6854231963839654
  0.0777246668134368  0.3315310329699451  0.8831648825178691
  0.5834470751261905  0.5598302619373997  0.6344264224732900
  0.4092903337514703  0.9726288978268705  0.5161381490859631
  0.2716219040235712  0.6760928646800975  0.5743923724447185
  0.4337486940921817  0.1397549677091384  0.6541264329790689
  0.8788412997529179  0.2354482352651995  0.5248968483211268
  0.7778570220782629  0.0193381572598511  0.3481564518315676
  0.8004915741709440  0.5436657956660236  0.7711498465788420
  0.8163621568175887  0.5971475809728449  0.6756454498391459
  0.2042606165938800  0.4259890768209477  0.4892333726976689
  0.6198267632227437  0.8946217588269884  0.6742019548846496
  0.5495889490033340  0.5429924972294939  0.8007136344841062
  0.5962058198112694  0.0212703799760741  0.4548007379749887
  0.9419867264141768  0.9017397434568036  0.5558252057172258
  0.6146924999072333  0.3254394901267174  0.4281476674532412
  0.2417893948567311  0.6959923833858565  0.9083201570709470
  0.4531110514129510  0.8585927239578598  0.8923790774154360
  0.1913897258735925  0.5995742077931031  0.8150988647198899
  0.7840180128111244  0.0684862878929152  0.5383050643187511
  0.3006940174424694  0.4192008018265043  0.6898190953252937
  0.3839620201755519  0.6743283002676064  0.7649597177904429
  0.4234721760390779  0.1706473847269455  0.7587901844252559
  0.4942965250381704  0.6795658782624606  0.9261118329360268
  0.2299176804619298  0.1759280577874731  0.8744239718960546
  0.9580956153310378  0.4599307220240641  0.6246871515556927
  0.0897179473720792  0.1960783654373303  0.7152994697230216
  0.1009715358900182  0.5356436441188801  0.5575928814041058
  0.4411490020830456  0.3789664914233467  0.7716041681171122
  0.7778783684939610  0.3250571514284700  0.6088822302867724
  0.3156072797342062  0.2927608445363378  0.6106579418665123
  0.9913855895723844  0.6600162977019514  0.4957547186300405
  0.5219913605228251  0.6764016991241840  0.5605911003249132
  0.4555824861723953  0.8520615380884491  0.7559746289102484
  0.1200486316233504  0.8678697557335155  0.8880347566598483
  0.2831810955259720  0.8566133744641243  0.6744260839536388
  0.7964657475469590  0.7448013520659942  0.8145990256196783
  0.1539934328534895  0.2487499340171454  0.5273844296837490
  0.1185051498815518  0.8639558293102528  0.3827866871232096
  0.5308866417914802  0.3956081228569218  0.5875382487705370
  0.3803164612818232  0.8320798420830871  0.4453089350897625
  0.9029773867667066  0.8546524677645225  0.3512556006270192
  0.6665508002489082  0.0783254621275550  0.6446634534655635
  0.2543877223809678  1.0144817906023829  0.9217429964731695
  0.8938821418228117  0.0804882298937034  0.8801823946691046
  0.8193508426532826  0.7856345624064262  0.6688482000062268
  0.0664293976639255  0.9000313054748793  0.7336197725925830
  0.8247188900063777  0.5929997286447642  0.4378209099156966
  0.9286345606496208  0.4576471609975336  0.3900111256370714
  0.0730473675277445  0.0701071844849562  0.7945993589183294
  0.8807243333543823  0.2965709490320057  0.4290289048858120
  0.2350935546067886  0.0830323336044785  0.5137332306256037
  0.2224786741883921  0.0616251888340723  0.6503467765948282
  0.9161831853858695  0.6419164863405861  0.8929367316212566
  0.2853192758351675  0.4132764025165671  0.3353480730605068
