1-pos-1
1.000
11.0985002518  0.0000000000000000  0.0000000000000000
0.0000000000000000  14.4173002243  0.0000000000000000
0.0000000000000000  0.0000000000000000  26.7964000702
Pt  H  C  O  K  
96  166  6  81  2  
Direct
  0.0000000000000000  0.0000000000000000  0.0018699899937576
  0.1249999521128992  0.1666699702868031  0.0018699899937576
  0.2499999943280624  0.0000000000000000  0.0018699899937576
  0.3750000365432257  0.1666699702868031  0.0018699899937576
  0.4999999886561249  0.0000000000000000  0.0018699899937576
  0.6250000308712881  0.1666699702868031  0.0018699899937576
  0.7499999829841874  0.0000000000000000  0.0018699899937576
  0.8750000251993506  0.1666699702868031  0.0018699899937576
  0.0000000000000000  0.3333300219343480  0.0018699899937576
  0.1249999521128992  0.4999999922211510  0.0018699899937576
  0.2499999943280624  0.3333300219343480  0.0018699899937576
  0.3750000365432257  0.4999999922211510  0.0018699899937576
  0.4999999886561249  0.3333300219343480  0.0018699899937576
  0.6250000308712881  0.4999999922211510  0.0018699899937576
  0.7499999829841874  0.3333300219343480  0.0018699899937576
  0.8750000251993506  0.4999999922211510  0.0018699899937576
  0.0000000000000000  0.6666699625079541  0.0018699899937576
  0.1249999521128992  0.8333300141554991  0.0018699899937576
  0.2499999943280624  0.6666699625079541  0.0018699899937576
  0.3750000365432257  0.8333300141554991  0.0018699899937576
  0.4999999886561249  0.6666699625079541  0.0018699899937576
  0.6250000308712881  0.8333300141554991  0.0018699899937576
  0.7499999829841874  0.6666699625079541  0.0018699899937576
  0.8750000251993506  0.8333300141554991  0.0018699899937576
  0.0000000000000000  0.2222199683821562  0.0864100026098289
  0.1249999521128992  0.0555599860957249  0.0864100026098289
  0.2499999943280624  0.2222199683821562  0.0864100026098289
  0.3750000365432257  0.0555599860957249  0.0864100026098289
  0.4999999886561249  0.2222199683821562  0.0864100026098289
  0.6250000308712881  0.0555599860957249  0.0864100026098289
  0.7499999829841874  0.2222199683821562  0.0864100026098289
  0.8750000251993506  0.0555599860957249  0.0864100026098289
  0.0000000000000000  0.5555599783168760  0.0864100026098289
  0.1249999521128992  0.3888900080300730  0.0864100026098289
  0.2499999943280624  0.5555599783168760  0.0864100026098289
  0.3750000365432257  0.3888900080300730  0.0864100026098289
  0.4999999886561249  0.5555599783168760  0.0864100026098289
  0.6250000308712881  0.3888900080300730  0.0864100026098289
  0.7499999829841874  0.5555599783168760  0.0864100026098289
  0.8750000251993506  0.3888900080300730  0.0864100026098289
  0.0000000000000000  0.8888900002512240  0.0864100026098289
  0.1249999521128992  0.7222199606033073  0.0864100026098289
  0.2499999943280624  0.8888900002512240  0.0864100026098289
  0.3750000365432257  0.7222199606033073  0.0864100026098289
  0.4999999886561249  0.8888900002512240  0.0864100026098289
  0.6250000308712881  0.7222199606033073  0.0864100026098289
  0.7499999829841874  0.8888900002512240  0.0864100026098289
  0.8750000251993506  0.7222199606033073  0.0864100026098289
  0.8633578381588949  0.2809480764417295  0.1686015090894364
  1.0081668014545748  0.4512745186809684  0.1688485085849903
  0.1293680000833570  0.6228360376560019  0.1690231917210734
  0.1343584487605120  0.9510594123988108  0.1675943504812168
  1.0024516484644479  0.1167279408362123  0.1698762122215928
  0.7611877875328120  0.7823091251848865  0.1699845529909646
  0.1244890038161615  0.2856490843867375  0.1676112312935205
  1.0049722794565012  0.7882493682794743  0.1705257674698501
  0.2535816438210697  0.7853254522519127  0.1760949870705816
  0.8844248960942298  0.9478781255637975  0.1669473264087824
  0.3698132362914833  0.9509600212869030  0.1694227601471288
  0.8856244226156481  0.6143492066823520  0.1696232119946131
  0.2521113398583921  0.1191142934309936  0.1689724715647674
  0.5025326934146297  0.1140733684887838  0.1691931018540791
  0.6208734827286621  0.9500052098807565  0.1708950803467318
  0.2594726347582818  0.4470865196131379  0.1711118807074064
  0.7529326996451363  0.1139530294257826  0.1716784799282057
  0.7634735768759159  0.4507907206056364  0.1736824775681618
  0.6320632802492647  0.2808184417618017  0.1751314262589667
  0.3956144461579747  0.2850520709260971  0.1741636513850260
  0.3796841940077956  0.6138577539145128  0.1708953375118727
  0.5062459274160720  0.7809660791708093  0.1723895881684947
  0.5125233900298788  0.4501035131919141  0.1739565499204464
  0.6346160736409129  0.6160681034046545  0.1713504999877295
  1.0003134382593211  0.0130468587303857  0.2555396916324997
  0.1337259707102582  0.5165559586979878  0.2528372106533276
  0.8829315665250106  0.8520378583776371  0.2590055366324511
  0.2585043675729693  0.3501231077641019  0.2606154446793150
  0.8815863694568231  0.1782148946006811  0.2578355854555068
  0.6356866865553086  0.8518040917952975  0.2564751013455333
  0.7580187513655788  0.3385314009535355  0.2611215761583371
  0.2452408379103804  0.6798421170684812  0.2549334183399141
  0.1308935760725321  0.8520986138995706  0.2580773597454498
  0.7633816826220202  0.6885408834150833  0.2597481497128599
  1.0035635173584452  0.6858277748308512  0.2570542700457819
  0.9958563096493562  0.3477077511121466  0.2576565085837095
  0.2518050637199157  0.0130338784776970  0.2606718667060066
  0.8893490225671861  0.5159100038135702  0.2609586392941105
  0.5056616194417628  0.0122015280366780  0.2618456192779044
  0.3873839869222608  0.8512075416391521  0.2575202514525115
  0.6320026027446721  0.1743921194664637  0.2619816535321494
  0.3802583719107034  0.1757438877376933  0.2564585460881540
  0.1324425013245914  0.1832321445833152  0.2543679806221495
  0.7570290824057373  0.0112592646455680  0.2572665357712188
  0.3839892619373342  0.5088874714583549  0.2571484688558230
  0.6425320872019120  0.5149817249616502  0.2643717070106845
  0.5059421586343887  0.3406369531947821  0.2663755301048065
  0.5084194703860861  0.6709671803459775  0.2668955263790634
  0.5307779800198319  0.8483748946896792  0.4121468113503042
  0.5581981416809215  0.8580019261547007  0.3541631870078721
  0.2993332416297598  0.7702505084539277  0.5507115550648612
  0.3561226922762811  0.8440104190721192  0.5852247005984843
  0.5095416619630949  0.7539329875422466  0.8981421309746990
  0.5974205339793224  0.6752620084924869  0.9220278231394384
  0.7318732055245597  0.4505809048112132  0.8729835152750577
  0.6565065323865076  0.4322746772586261  0.9215920659157288
  0.3020809936059833  0.1878577356414523  0.7526582925565892
  0.2760257181327859  0.1770872382609318  0.8100818113303375
  0.0728304173141687  0.3504823541916176  0.8292903033535781
  -0.0093368613910869  0.3812423371496288  0.8752559264810584
  0.2304491902484925  0.6620591416492779  0.8421390019734681
  0.1958363383419750  0.7166097115870823  0.8009697336086908
  0.3560560216466273  0.0166056226460821  0.4193196253438433
  0.4965616526977317  0.0500549255666928  0.4140940077895016
  0.5648295681646992  0.0841020794972639  0.8598807168476501
  0.5810700037470444  0.1821483050601801  0.8553119788351083
  0.5748158878011767  0.1227539625218513  0.7822537955018504
  0.6830119812603129  0.1222858472717697  0.7421877455777052
  0.1639652316181065  0.3361307859728149  0.8998654766210925
  0.3037354789763848  0.3692718832841320  0.8959180261156929
  0.0586109016120895  0.3586509000752293  0.5714181212284652
  -0.0532084997884489  0.4182503946013773  0.5914441421788232
  0.4919221143338299  0.2264316186533809  0.5064032873576484
  0.6336262000047684  0.1979053421590611  0.4887992017840567
  0.7369214619041470  0.8361439868042494  0.3875412514290951
  0.8420559398901035  0.8104979605547022  0.3524204540445763
  0.3984731216889190  0.7918061745956507  0.7161841949449878
  0.3483577997101866  0.8870477464182052  0.7400092314471851
  0.8595583802642880  0.8594747112163735  0.5696370257128376
  0.9024145598929596  -0.0507969896378819  0.5979637764633661
  0.7409195335438536  0.0797397242697579  0.4382611568581625
  0.7433217482300837  0.0702572644351783  0.4958723803454852
  0.4967612411330827  0.4021876331968756  0.6899874190399786
  0.5709219906781855  0.3405397846418488  0.6510015414309269
  0.6828327464849047  0.5600359455642830  0.7807784044718453
  -0.2041088801464508  0.5355547472533048  0.7470588536503586
  0.2732063538412074  0.1337412338164456  0.3490465967069057
  0.3124221375980633  0.2348567408614396  0.3655779459679818
  0.4336604646757936  0.8790007664985905  0.9187279930738941
  0.5593512284502734  0.8835549677899899  0.8887697715367870
  0.2988195668114820  0.5150769872284152  0.8175070298290444
  0.2580253144505316  0.4569988620681511  0.7722312967185653
  0.7122309190485430  0.9909213225317047  0.8725072716801506
  0.6228572528598048  0.0141377163774708  0.9176452123748453
  0.0277343449670218  0.6697110927901758  0.8313474934632789
  0.8868297067798603  0.6695317920084911  0.8264571638161361
  0.0278160523940999  0.3238353357399606  0.4569893303249447
  0.0175997937620734  0.3775618482040936  0.4092552525552045
  0.1627860265450717  0.6847263583275564  0.3815169246845663
  0.0655821610295456  0.6671438567248814  0.3418229525534784
  0.5761336269432402  0.3074327040044144  0.7477355817128033
  0.6438825092192985  0.3759317929347727  0.7816745967453256
  0.6864230945045424  0.2204666790972876  0.9258869092565695
  0.6908780179787282  0.2871070699161344  0.8838928584530280
  0.6051693768543813  0.7200754226233125  0.5929635232260289
  0.5156890114564586  0.7454818907693127  0.5526811479341174
  0.3610365757076172  0.9889465682811126  0.6195460792236219
  0.3339665791329653  -0.0919728752173073  0.6570259827468158
  -0.0548871886812998  0.6643778235994294  0.6203074432742613
  -0.1115858170746219  0.6169634232703145  0.6625444020461474
  0.4088941103609012  0.1388583994752181  0.6411562337810612
  0.4957434535452356  0.0719791030050763  0.6139486021667391
  0.7660306180577096  0.2349851848330008  0.6118820697013733
  0.7950136760296937  0.1946235713514967  0.6676523426218001
  0.9619789603976840  -0.0253133738579491  0.3486914245354548
  0.9098941068332355  -0.0844260454914053  0.3914925712154327
  0.8823009166857348  0.9484966673962668  0.7237421241171689
  0.9621167795412888  1.0022950978189544  0.7619955557316622
  0.7633130500335877  0.8185906721986858  0.6283112241193799
  0.7717143617229647  0.7074362883356830  0.6484700466173592
  0.2065432772529984  0.3590371745797037  0.5035956412334338
  0.1772343763006158  0.2595229546440042  0.5077731075052740
  0.6854392328788936  -0.1040366137324317  0.6906815363972085
  0.6765444637154664  -0.0189035073529678  0.7294416992130731
  0.5794397592104400  0.6825407186162539  0.8411284475396987
  0.5893306056950537  0.7094767347953062  0.7794563928506127
  1.0962345542431984  -0.0701721464255018  0.4687635247306653
  0.9753807346036969  0.8916641083905961  0.4833553312186882
  0.6947218202341798  0.7573504698262705  0.5263035942609263
  0.7374476398712153  0.8584067745804943  0.5176715126195854
  0.6063102208164244  -0.0022394227280904  0.3750099066282898
  0.6297788508196319  0.0892161383885207  0.3466154364454777
  -0.0309528916255406  0.4973591420475640  0.7101066310045571
  -0.0136112829727151  0.5815904070005669  0.7514658372970660
  0.8053816522417353  0.7508709553508386  0.9118624487911531
  0.7372493653611397  0.7368112273264233  0.8614152417387653
  0.9326156023487310  0.5290233923647322  0.8678924907701762
  0.8832173551656413  0.4881745554231685  0.9171502465784975
  1.0294033436316834  0.0440407899829823  0.6128634344642185
  0.9097395374264616  0.1008819115002245  0.6003709146099462
  -0.0865665590397387  0.3288950621079424  0.7002234619293753
  0.0165005728832865  0.3662716083001171  0.6642074849783044
  0.5809308428455749  0.4944178161654460  0.7399675484525637
  0.4397642348666365  0.5125376395814617  0.7474272319016960
  0.4386615179749542  0.2497033446270481  0.6891251094782664
  0.4818728810888326  0.1531293939540050  0.7096315580445084
  0.2584239693498080  0.6040991849930675  0.9130446793638050
  0.3984892204856885  0.6291152781026574  0.8984149350633395
  0.2964243259593958  0.2115040799775017  0.8999450159209395
  0.3977797626651399  0.1535909832804715  0.8679243941302454
  0.8175263098839369  0.4684413552349333  0.5301581069353681
  0.8129031605812483  0.5244850204586163  0.5793182741201003
  -0.1314430822185549  0.2061645685709035  0.7509941724030171
  -0.2487143696511890  0.2610610980935401  0.7562244707689482
  0.7296668829904832  0.4820781098589805  0.4488612303365356
  0.8673110028031796  0.4406153979850573  0.4507667574620536
  0.0956485427594447  0.3677698858253081  0.7484047416467132
  0.1928016741408783  0.2958576526353151  0.7679417944048635
  0.7218745118918770  0.3742983749138101  0.5802580960377469
  0.6208499871487113  0.3012624558084268  0.5585987900944293
  0.3899560663250946  0.1056620978407879  0.4923205622523584
  0.3897495829131013  0.1393087248828181  0.5470449424473975
  1.0678077220188327  0.5372958661527844  0.5654039019386428
  0.1099913046181186  0.6235750328932684  0.5350592808227537
  0.5735981724888931  0.5737882317701164  0.5406147595777360
  0.5643007547424490  0.4726095017439943  0.5610159166946561
  0.4307001171824760  0.0027398392268631  0.7899392890853346
  0.4572720999377289  -0.0874424759064910  0.8174766939519165
  0.0767335836625205  -0.1240063208288225  0.9139620349987261
  1.1179589824929430  -0.1770191280124995  0.8629836796554219
  0.5661953699627882  0.7220071185280048  0.6860847563492428
  0.4838393763363738  0.6340565662767031  0.7084463574385762
  0.8579464668080442  0.9172296781273458  0.8722606890241712
  0.8781146717836397  0.0265632446256833  0.8772303599072423
  1.0611969147894413  0.0885216819060841  0.5160542165728603
  0.1730172717154796  0.0958925405929892  0.4863302573091765
  0.2509803125740557  0.8413315649663481  0.3882265464706638
  0.3275160179692270  0.7630915501264846  0.3668432184079803
  0.5690509001588487  0.4557184309393822  0.4787040328848269
  0.5940556828505454  0.3680480448174639  0.4520120300401828
  0.3379697918907245  0.4995791047591717  0.5010070444212396
  0.1956478639307895  0.4985360906950924  0.5041005070013936
  0.1047496918253843  0.7567307183290422  0.5704613894125184
  0.1198685714211014  0.7971500321349523  0.5123151112886611
  0.6694614446032894  0.0057377277585281  0.6520482880322062
  0.6745792850422071  0.0943729306272431  0.6147498370954517
  0.2777114221986993  0.0595649630818238  0.9054584830737268
  0.2041064110921301  -0.0405249179534490  0.8951813608081036
  1.0032639225461228  0.2167577107975311  0.8738249932139199
  0.8688547972088446  0.1857988799792826  0.8865019366693870
  0.9854316600773354  0.8061559944080522  0.6159091284972302
  0.0832776216813709  0.7636431484476873  0.6577146140126446
  0.0619793702927057  -0.1659085206236063  0.7317291841714787
  0.1895039633268371  0.8037827939913520  0.7180177150324355
  0.6059425789542423  -0.0646920648796633  0.5087257554517566
  0.6674380333323515  -0.0145371277104120  0.5554584086223082
  0.0903836170330590  0.5291475113171130  0.3781950289012968
  0.0651714725764584  0.4580120523307344  0.3331582510528389
  0.9577843315790335  0.1391889269682897  0.8160210234626787
  0.0817038275647138  0.1423042031435267  0.7820394981863544
  0.2193688450117515  0.9609978171188912  0.3450375020629027
  0.1097069803825546  0.9574658094816935  0.3848102529439149
  0.4716453934891823  -0.0618976078888812  0.4614586134482843
  0.4378121356542690  -0.1422820559040968  0.5030211123206071
  0.1916087872913373  -0.0188975847670002  0.6514897391651647
  0.0738847993238552  -0.0202875710049384  0.6880335653893823
  0.4127338650514585  0.4829695397175569  0.8771988634451134
  0.5183474255872521  0.4119870335701767  0.8698705870316567
  0.5234107652300013  0.3350302687779758  0.3691838311595324
  0.7201378978843336  0.4199247776775729  0.3471498075275068
  0.7013713729598313  0.5971424287946393  0.3563632779434289
  0.3072815799906742  0.5609348764180746  0.3522142004700095
  0.5009308283881260  0.6598072536262153  0.3641856979233838
  0.2361040772220564  0.4258525148801288  0.3706072233390819
  0.5230100782183233  0.3917003200003897  0.3407298658991791
  0.6328589540700198  0.4544213434050268  0.3411504752635144
  0.4103908713937539  0.4432366543931262  0.3504784871959073
  0.6246655140883204  0.5564794000458942  0.3411635902602706
  0.3996339367096611  0.5389246839712840  0.3381105930932751
  0.5070347359578911  0.6031647997343563  0.3384518680397620
  0.5894695400794314  0.8696073091041374  0.3875562039786521
  0.3806465566656032  0.7994979793076792  0.5580318182750730
  0.5374157587042133  0.6851182272844417  0.8930717981970100
  0.6610886819153822  0.4117739604460683  0.8847453074140884
  0.2362865300538858  0.1853234314214141  0.7757641268058902
  0.0512753541819945  0.3352334585815053  0.8645343260740133
  0.1773935999668686  0.7164492237936673  0.8346804850056511
  0.4308175390746626  0.0259290883580216  0.4389556420371883
  0.5271916746455049  0.1339442249974898  0.8409669161067951
  0.6026233990232398  0.0928948048499855  0.7480897259178136
  0.2459979688748670  0.3270539643790304  0.9146014397976959
  0.0268362428384587  0.3981274703932087  0.5992334803045860
  0.5741483546181415  0.2483907011774719  0.4976585131422270
  0.8238953798840511  0.8322257479994011  0.3876820699304652
  0.3390031782528269  0.8423425845381978  0.7118469396720584
  0.8834448930439767  0.8833095325320048  0.6020619426839147
  0.7610384444357813  0.1120071282193477  0.4686873237635709
  0.5190726079107553  0.3351000966503470  0.6810825179347976
  0.7182801703056316  0.5073572699673146  0.7644136758720634
  0.2436039898148863  0.1904013064715992  0.3644162891775752
  0.4759223555401857  0.8482805932893581  0.8881202480092086
  0.2922056039124772  0.5181043215435068  0.7813097378100065
  0.6196488012679580  -0.0072870236705569  0.8838301179358095
  -0.0398604325055767  0.6286942320534278  0.8217772287998103
  -0.0258608527538169  0.3297584252693074  0.4270205230673956
  0.0816991820631748  0.6510427873506900  0.3765527865521486
  0.6155210197695010  0.3132291710752150  0.7808080149492945
  0.7120481117994580  0.2210305820800594  0.8912318621656462
  0.5880787255955108  0.7109213662086755  0.5583154047411689
  0.3090534758733464  0.9311482007548889  0.6229487664413502
  -0.1272953127762346  0.6249557459040477  0.6255131246991752
  0.4104379515026106  0.0966753144497047  0.6114715356195123
  0.7887751011205504  0.1737872293716247  0.6311283134523589
  0.9672178951258759  -0.0275571261691812  0.3861102878929654
  0.9619316222629740  0.9452260234361360  0.7384755630218618
  0.7132111092862496  0.7661125544492349  0.6440524938755772
  0.1339394427692074  0.3178680067073728  0.5095044160944302
  0.7252216110185339  -0.0474294878972877  0.7017549642279113
  0.6255887574335947  0.6753751242128109  0.8071394597087225
  1.0517557366462049  0.8712538751553867  0.4687463909366185
  0.7688947523802587  0.7937961262269309  0.5125732299419832
  0.6217149445377462  0.0617930180019717  0.3804132424838781
  -0.0554873509148340  0.5608301957097228  0.7208483534876493
  0.8100078192134100  0.7658560617742910  0.8748334822060683
  0.8971588852813797  0.4675712525454675  0.8803981726723010
  0.9727797547284820  0.0645455576163659  0.5842150940606985
  -0.0105084937382494  0.3610589745732191  0.6984346881136976
  0.5055074558826167  0.5151573691363988  0.7221551622495823
  0.4106581703199777  0.1860806414212170  0.6967272743163165
  0.3185281682564857  0.6032677585114441  0.8848912062732545
  0.3091725854620302  0.1600334664399363  0.8764647474277206
  0.8144430727146220  0.4602390426826370  0.5675571646996420
  -0.2012561397056993  0.2271534923979852  0.7306363929523864
  0.8157334209306053  0.4980140890454828  0.4593660662422005
  0.1644152373744419  0.3622027220185423  0.7715824898842720
  0.6546526976130513  0.3314520018280341  0.5894758695316831
  0.3632532282049680  0.1562132803896264  0.5125144998291368
  0.0696389301315419  0.5591615899287700  0.5315188878202809
  0.5447796071563269  0.5131711294206069  0.5337081941430074
  0.4003094154347064  -0.0597253846561836  0.7921942585417430
  0.0945184032887567  -0.1155574016272447  0.8782743227838493
  0.4988388623320605  0.7043920634241404  0.7096717991775403
  0.8351755266119567  0.9813247998993464  0.8595409098184916
  0.0866004934715498  0.0934102210155915  0.4793326128342184
  0.2610771654422462  0.7706801598590888  0.3889631429779667
  0.5864520365392960  0.4329215065161789  0.4436639537234401
  0.2651589044314986  0.4633149325795025  0.4911765298517490
  0.1392375305978276  0.7422613462653049  0.5346648705000121
  0.6343125316195976  0.0360427487265723  0.6210656044319832
  0.2651144040585838  -0.0066301053812342  0.9156843653259004
  0.9525396015543115  0.1581405503339096  0.8785921962884129
  1.0505151616326784  0.7527435745916098  0.6221540383418961
  0.1043660000288905  0.7800174283910366  0.7205715428608274
  0.6822069248204978  -0.0348375402943644  0.5194559452924346
  0.1019404339623732  0.4633722772894784  0.3655367416943814
  -0.0083736746129215  0.1316400468793142  0.7821173334849220
  0.2024647148370847  0.9594031477187736  0.3818248494758958
  0.4953317471708308  -0.1243920660108938  0.4776160441839707
  0.1147491034469681  0.0114044423326132  0.6599075973591410
  0.4287266779066201  0.4151364327429476  0.8712055851323822
  0.3205812290469565  0.3977629981121125  0.3737390692467464
  0.9278172284340787  0.6918093204710432  0.4566179464945074
  0.9672061847328451  0.1611487443456359  0.3933197150060813
