parallel                                
   1.00000000000000     
    11.0985002518000009    0.0000000000000000    0.0000000000000000
     0.0000000000000000   14.4173002242999999    0.0000000000000000
     0.0000000000000000    0.0000000000000000   26.7964000702000007
   Pt   O    H    C 
    96    81   166     6
Selective dynamics
Direct
  0.0000000000000000  0.0000000000000000  0.0018699999999967   F   F   F
  0.1250000000000000  0.1666699949999995  0.0018699999999967   F   F   F
  0.0059676310870661  0.0148834049293684  0.2564886189108591   T   T   T
  0.1284510318659286  0.1804295476998447  0.2590241055939406   T   T   T
  0.0021230396287922  0.1171703195930303  0.1709347628603292   T   T   T
  0.1261629552634244  0.2832135801850688  0.1710126876770907   T   T   T
  0.0000000000000000  0.2222200040000004  0.0864100009999973   F   F   F
  0.1250000000000000  0.0555599999999998  0.0864100009999973   F   F   F
  0.2500000000000000  0.0000000000000000  0.0018699999999967   F   F   F
  0.3750000000000000  0.1666699949999995  0.0018699999999967   F   F   F
  0.2532814989624536  0.0149250498683148  0.2582506555101287   T   T   T
  0.3770866128097970  0.1805152670254002  0.2588728709213604   T   T   T
  0.2519759613074435  0.1169561953674806  0.1712290327808274   T   T   T
  0.3777611327162043  0.2839008540722994  0.1727108063072577   T   T   T
  0.2500000000000000  0.2222200040000004  0.0864100009999973   F   F   F
  0.3750000000000000  0.0555599999999998  0.0864100009999973   F   F   F
  0.5000000000000000  0.0000000000000000  0.0018699999999967   F   F   F
  0.6250000000000000  0.1666699949999995  0.0018699999999967   F   F   F
  0.5019757497194088  0.0147604143963606  0.2583497472494808   T   T   T
  0.6273950651463625  0.1816692907453952  0.2585218155937288   T   T   T
  0.5009228024533429  0.1165549898424751  0.1716920723196569   T   T   T
  0.6240310477873553  0.2836903713020454  0.1725625259951188   T   T   T
  0.5000000000000000  0.2222200040000004  0.0864100009999973   F   F   F
  0.6250000000000000  0.0555599999999998  0.0864100009999973   F   F   F
  0.7500000000000000  0.0000000000000000  0.0018699999999967   F   F   F
  0.8750000000000000  0.1666699949999995  0.0018699999999967   F   F   F
  0.7546649618745336  0.0146255119926404  0.2604990044084657   T   T   T
  0.8792155510761531  0.1815058131117642  0.2571822182248785   T   T   T
  0.7507252692165219  0.1153535697844414  0.1722476886296234   T   T   T
  0.8749325694927628  0.2831015619447816  0.1706219154765833   T   T   T
  0.7500000000000000  0.2222200040000004  0.0864100009999973   F   F   F
  0.8750000000000000  0.0555599999999998  0.0864100009999973   F   F   F
  0.0000000000000000  0.3333300050000005  0.0018699999999967   F   F   F
  0.1250000000000000  0.5000000000000000  0.0018699999999967   F   F   F
  0.0028081651463476  0.3473031624554081  0.2578959366233257   T   T   T
  0.1239332669607833  0.5153797596446367  0.2565077294294860   T   T   T
  0.0006393841805592  0.4494547311711072  0.1707403146703433   T   T   T
  0.1257529375532456  0.6166392743936475  0.1706881947999631   T   T   T
  0.0000000000000000  0.5555599930000028  0.0864100009999973   F   F   F
  0.1250000000000000  0.3888899980000033  0.0864100009999973   F   F   F
  0.2500000000000000  0.3333300050000005  0.0018699999999967   F   F   F
  0.3750000000000000  0.5000000000000000  0.0018699999999967   F   F   F
  0.2479749283324839  0.3456441085518500  0.2572259745156469   T   T   T
  0.3699651927464760  0.5153229472223112  0.2608833039364882   T   T   T
  0.2518579763079274  0.4498180361106796  0.1719445290134109   T   T   T
  0.3755858973437570  0.6159882641425931  0.1727834858984265   T   T   T
  0.2500000000000000  0.5555599930000028  0.0864100009999973   F   F   F
  0.3750000000000000  0.3888899980000033  0.0864100009999973   F   F   F
  0.5000000000000000  0.3333300050000005  0.0018699999999967   F   F   F
  0.6250000000000000  0.5000000000000000  0.0018699999999967   F   F   F
  0.4999535583018100  0.3477230769767251  0.2633986752256298   T   T   T
  0.6354889196013299  0.5137328518307875  0.2614865050797341   T   T   T
  0.5005715512436586  0.4506293100928518  0.1731604291002145   T   T   T
  0.6259254461319310  0.6150717411409173  0.1731527106742743   T   T   T
  0.5000000000000000  0.5555599930000028  0.0864100009999973   F   F   F
  0.6250000000000000  0.3888899980000033  0.0864100009999973   F   F   F
  0.7500000000000000  0.3333300050000005  0.0018699999999967   F   F   F
  0.8750000000000000  0.5000000000000000  0.0018699999999967   F   F   F
  0.7567974457217413  0.3454426856465828  0.2573150507915532   T   T   T
  0.8812226095824793  0.5150565002925682  0.2580219019376207   T   T   T
  0.7492276923281933  0.4503871301120531  0.1721664775566369   T   T   T
  0.8766311159235017  0.6162879467721545  0.1712088553483676   T   T   T
  0.7500000000000000  0.5555599930000028  0.0864100009999973   F   F   F
  0.8750000000000000  0.3888899980000033  0.0864100009999973   F   F   F
  0.0000000000000000  0.6666700239999983  0.0018699999999967   F   F   F
  0.1250000000000000  0.8333299760000017  0.0018699999999967   F   F   F
  0.0031859158561535  0.6828581784556681  0.2577682953189435   T   T   T
  0.1285355737234299  0.8493043626111766  0.2578015227630147   T   T   T
  0.0016633650368978  0.7833746793016612  0.1709792567101749   T   T   T
  0.1279054803204988  0.9498277250042324  0.1708493209026819   T   T   T
  0.0000000000000000  0.8888900279999987  0.0864100009999973   F   F   F
  0.1250000000000000  0.7222200040000004  0.0864100009999973   F   F   F
  0.2500000000000000  0.6666700239999983  0.0018699999999967   F   F   F
  0.3750000000000000  0.8333299760000017  0.0018699999999967   F   F   F
  0.2485952873356286  0.6839375102398393  0.2573261251428211   T   T   T
  0.3775119478771011  0.8482389529654769  0.2583827316406471   T   T   T
  0.2519371288172964  0.7829133071281521  0.1709109819594316   T   T   T
  0.3770856106209058  0.9492257620828910  0.1712061169958721   T   T   T
  0.2500000000000000  0.8888900279999987  0.0864100009999973   F   F   F
  0.3750000000000000  0.7222200040000004  0.0864100009999973   F   F   F
  0.5000000000000000  0.6666700239999983  0.0018699999999967   F   F   F
  0.6250000000000000  0.8333299760000017  0.0018699999999967   F   F   F
  0.5025067423768238  0.6801287280942497  0.2635163396684374   T   T   T
  0.6268984880116973  0.8471460267147768  0.2574509564097243   T   T   T
  0.5014571614863763  0.7803175014229535  0.1729467268498281   T   T   T
  0.6263810412214494  0.9499222591618939  0.1719245548013766   T   T   T
  0.5000000000000000  0.8888900279999987  0.0864100009999973   F   F   F
  0.6250000000000000  0.7222200040000004  0.0864100009999973   F   F   F
  0.7500000000000000  0.6666700239999983  0.0018699999999967   F   F   F
  0.8750000000000000  0.8333299760000017  0.0018699999999967   F   F   F
  0.7566750012751615  0.6831328885576156  0.2574253026168026   T   T   T
  0.8787681032991109  0.8477847828506432  0.2570294045668517   T   T   T
  0.7506954259752174  0.7825317464150117  0.1708200639472974   T   T   T
  0.8761282339881818  0.9498291719710582  0.1712173601626164   T   T   T
  0.7500000000000000  0.8888900279999987  0.0864100009999973   F   F   F
  0.8750000000000000  0.7222200040000004  0.0864100009999973   F   F   F
  0.7295230010224556  0.8310905048542409  0.4482482970214093   T   T   T
  0.0838922833439323  0.0022841510216144  0.4419999777484676   T   T   T
  0.5779269705289447  0.8446553590053913  0.7605519880289775   T   T   T
  0.5186624865722117  0.6409433124592032  0.8660054504273336   T   T   T
  0.3042745391860254  0.0647085167479128  0.7853029634316522   T   T   T
  0.1280702071142633  0.5116300839690980  0.9186273999266227   T   T   T
  0.1365820297683637  0.7999256696633791  0.8048853598128948   T   T   T
  0.5779089804530403  0.0860602822304667  0.3860986463579134   T   T   T
  0.7583125796033445  0.2488980996253712  0.8477492997274710   T   T   T
  0.6859642344649852  0.2251923652187224  0.7470493522380034   T   T   T
  0.0091913069118139  0.2204616267242414  0.8781294407812826   T   T   T
  0.4354387133086435  0.4053392487791017  0.6369628066977244   T   T   T
  0.5102366305297017  0.3346982934473423  0.4886074129095556   T   T   T
  0.5391823872750443  0.8163129883677411  0.3824943586454044   T   T   T
  0.6168144725550070  0.8762967024512111  0.5985550646031788   T   T   T
  0.3945358277734488  0.9706122897437077  0.3798272161951163   T   T   T
  0.6392437261721809  0.4889105567603549  0.5138690086293878   T   T   T
  0.0249075485675873  0.4102966456536765  0.6848314482658420   T   T   T
  0.9777116775877785  0.5058720415349549  0.7719787611962801   T   T   T
 -0.0251081192125053  0.1058792295931843  0.3741609239419671   T   T   T
  0.6576578674953790  0.8980357978031877  0.8541364610072179   T   T   T
  0.3890390485718313  0.3210505597525167  0.8615122920925055   T   T   T
  0.7192338329007011  0.0736087375528602  0.8800036400834749   T   T   T
  0.1160692926744747  0.7655050678335457  0.5126361132438073   T   T   T
  0.0992592526518266  0.5204459876911725  0.3761817281581543   T   T   T
  0.2533125514121989  0.7238467122560687  0.4070333892285686   T   T   T
 -0.0899136362576970  0.2456481872672715  0.6848069890176568   T   T   T
  0.0688050194748339  0.3966461251486693  0.8438759852714087   T   T   T
  0.5678457951895713  0.7010262441153861  0.6228263183444173   T   T   T
  0.4718630402530960  0.9444105506667767  0.5219247327226938   T   T   T
  0.3319149644175705  0.5504495008630431  0.5914802427425198   T   T   T
  0.4520896531141261  0.1026924939650387  0.6324676670899634   T   T   T
  0.9256863819280866  0.1955254708096400  0.5255480581708216   T   T   T
  0.7815000188841669  0.0090717617162412  0.3412262420606191   T   T   T
  0.8179730546495348  0.6360096832400529  0.7429703910961928   T   T   T
 -0.2068736764819098  0.6253160922233018  0.6423578034714212   T   T   T
  0.2753254702826018  0.3482451193944726  0.4727189487028098   T   T   T
  0.7140810990121097  0.9343382184416454  0.6903847280061229   T   T   T
  0.5820344565150577  0.6552487854912925  0.7682460342707664   T   T   T
  0.6632645162341207  0.0036085925339684  0.4674701132963023   T   T   T
  0.8208000910535398  0.8541055039216033  0.5444695467062207   T   T   T
  0.6231975095797456  0.2620100702766845  0.4134222687985692   T   T   T
  0.3531754975101066  0.5011993912791863  0.8886120437556341   T   T   T
  0.8575924600922160  0.8103975210176748  0.8818808380797464   T   T   T
  0.1378912649949000  0.6197813241673872  0.8227006860427515   T   T   T
  0.8903316008264721  0.0169501456550743  0.5049000933673481   T   T   T
  0.2741379208931389  0.3078161556695226  0.6944931349612173   T   T   T
  0.4036096821666391  0.5384386957035938  0.7273694476606276   T   T   T
  0.4535927299774948  0.1744182683433800  0.7275861336669667   T   T   T
  0.4531807589189012  0.8148131624073690  0.8818685878840038   T   T   T
  0.2515030300636624  0.1614968100060361  0.8728272847645419   T   T   T
  0.9957713080206323  0.4165675038228981  0.5766648949789689   T   T   T
  0.1390126720460046  0.1857721274886197  0.6416157302137508   T   T   T
  0.1754991929715826  0.4885674713632683  0.5265896046499510   T   T   T
  0.2800035934870350  0.3972322848971549  0.7824903783536755   T   T   T
  0.7798893318579369  0.2558743101112911  0.6017046707298270   T   T   T
  0.4201407168280012  0.2549628369734409  0.5763393248968661   T   T   T
  0.0798485479477982  0.6128507831221478  0.4623063269346585   T   T   T
  0.4952077674507908  0.6354219552418037  0.5340102198501957   T   T   T
  0.3553907342766430  0.8818193267362809  0.7963387860460938   T   T   T
  0.0718753900355969  0.9077033064001542  0.8796630211203106   T   T   T
  0.3344941106929446  0.6911487746335226  0.6634713252779176   T   T   T
  0.9011834059284680  0.8002492425838160  0.7754296589375405   T   T   T
  0.1850859450927399  0.2144504647790011  0.5344945420083410   T   T   T
  0.1059739269464928  0.8581706254430602  0.3794085765739681   T   T   T
  0.6923742006809329  0.4389294559562269  0.6092951815693276   T   T   T
  0.3632673294118559  0.7795872912749030  0.4936020144833724   T   T   T
  0.8613201259186383  0.8515154132091791  0.3667951305706621   T   T   T
  0.6845817656789301  0.0794363929743067  0.6189510451015817   T   T   T
  0.2540183181971157 -0.0038248798809788  0.9210118217745309   T   T   T
  0.9531020688829519  0.0591177036426507  0.8446791381441371   T   T   T
 -0.0125027544537842  0.7614227918573968  0.6043262153178627   T   T   T
  0.1615999904199719  0.8505245388309211  0.6640386043943372   T   T   T
  0.8746734990111139  0.4979644301297321  0.4949633813046928   T   T   T
 -0.0021957691801492  0.3871550584487318  0.4357154172021178   T   T   T
  0.1087937323673977 -0.0144131540526126  0.7339969225443654   T   T   T
  0.8615944815533201  0.2364009889171527  0.4302634015273529   T   T   T
  0.2513158773379743  0.0362285769656174  0.5166990657802502   T   T   T
  0.2366655064747595  0.0167020113955541  0.6176351802188570   T   T   T
  0.6227079910408820  0.3907585598523767  0.8844848935165555   T   T   T
  0.2928961149009247  0.4192710802183640  0.3642403311362064   T   T   T
  0.7033393730619244  0.8975453776319353  0.4534923581107292   T   T   T
  0.7654671213202409  0.8155167247280605  0.4810530029097459   T   T   T
  0.1024828698296190  0.9452200295417832  0.4221186857962219   T   T   T
  0.1512548112375627  0.0121476824064134  0.4660340560408712   T   T   T
  0.6185222612086199  0.8649397672964728  0.7919847943473713   T   T   T
  0.4917407507015070  0.8614829526269864  0.7671435763145988   T   T   T
  0.5435202496144964  0.6435555817226266  0.8302246143519890   T   T   T
  0.4529163688345534  0.5949826318181145  0.8677783913894289   T   T   T
  0.3634664028512363  0.1025423381478545  0.7661128076168536   T   T   T
  0.2836903394925832  0.1014800438476306  0.8154676994237129   T   T   T
  0.2162801829688680  0.5084130449979510  0.9081772111420502   T   T   T
  0.0900541683690287  0.4601816554020909  0.8989106125089367   T   T   T
  0.1437671850055325  0.7317064246281211  0.8124919419536862   T   T   T
  0.2174968208934631  0.8247480545473580  0.7957183079975501   T   T   T
  0.6393203285367549  0.0608556008129757  0.3631679446042463   T   T   T
  0.5025563929474833  0.0472983663546004  0.3812156486692528   T   T   T
  0.8437086625976953  0.2515522026995927  0.8577727617581506   T   T   T
  0.7182904351019959  0.3045111804856551  0.8620947932848155   T   T   T
  0.7151268888658373  0.2337710368791638  0.7815199850442826   T   T   T
  0.7588895369383875  0.2233411974100875  0.7262901547363938   T   T   T
 -0.0107117086613074  0.1537945682770753  0.8660088863894987   T   T   T
 -0.0013628143243051  0.2206548284220235  0.9147314184783764   T   T   T
  0.4349539745700220  0.3515910821460292  0.6130369697887454   T   T   T
  0.3950535075786855  0.4579851974677205  0.6188691733182753   T   T   T
  0.5016881421930065  0.2950597921645485  0.5185855170782492   T   T   T
  0.5549721815114763  0.2989462421956141  0.4613483860600147   T   T   T
  0.5806563258677691  0.8217270788410879  0.3501929654607020   T   T   T
  0.6030540029787389  0.8115975801410468  0.4082881509184638   T   T   T
  0.5951261776402792  0.8111222709610456  0.6084560923360436   T   T   T
  0.6480983796370228  0.9044073456160427  0.6296969538872231   T   T   T
  0.3580937659802417  0.9708445436387600  0.3464047801055187   T   T   T
  0.4400361927385100  0.9109507187303982  0.3818890569135027   T   T   T
  0.7234195285911847  0.4917499061930507  0.5004525218000946   T   T   T
  0.5974127519142874  0.4324897818405802  0.5009721500540342   T   T   T
 -0.0218549272922184  0.3502385411517001  0.6871316072911815   T   T   T
  0.1093610593263669  0.3903376996512895  0.6857407012004870   T   T   T
  0.9105309878707089  0.5500563557945768  0.7642061226004585   T   T   T
  0.9961820217774406  0.4740991337120493  0.7397695074306397   T   T   T
  0.0273219869440723  0.0703062508728767  0.3984852143403614   T   T   T
  0.0251062824764347  0.1244636533475025  0.3456019839438458   T   T   T
  0.5826207050373217  0.8740268713286695  0.8704408781658525   T   T   T
  0.6648830975288327  0.9653751262892053  0.8614930732189943   T   T   T
  0.4765367289284266  0.3312261779064832  0.8649225277015150   T   T   T
  0.3641394817082872  0.3402815762017670  0.8270837482675523   T   T   T
  0.7168516371140223  0.0746126558537833  0.9168595043476832   T   T   T
  0.7161181872258779  0.1400049484712111  0.8693242246560794   T   T   T
  0.0844563533680378  0.7611281683981199  0.5469428789966962   T   T   T
  0.2046404629713423  0.7745814809209804  0.5138689434805315   T   T   T
  0.0883734662008860  0.5652490305926088  0.4045843557659102   T   T   T
  0.0701033960872825  0.5485212638173067  0.3448523272633086   T   T   T
  0.2012407866652933  0.6797198411589700  0.4249882062678835   T   T   T
  0.3056812408780665  0.7498047388833258  0.4339643387327232   T   T   T
 -0.0190174281689983  0.2078538943011830  0.6759382670616204   T   T   T
  0.8635775228274124  0.2501646600683143  0.6525477479383724   T   T   T
  0.0384305130396445  0.3335657387013081  0.8510937200403309   T   T   T
  0.0133581073451388  0.4290251633098390  0.8202168603411928   T   T   T
  0.6476326498813365  0.6744903896162202  0.6326682262613951   T   T   T
  0.5505880326459917  0.6753642413804311  0.5886904606906029   T   T   T
  0.5106700062499384 -0.0724916598197447  0.5541074568532707   T   T   T
  0.5403613176964981  0.9698999961136842  0.5021243607145777   T   T   T
  0.3082394646855051  0.6012553316619669  0.6144797262964599   T   T   T
  0.2636682894364976  0.5316527376733412  0.5685310605728262   T   T   T
  0.4529651642949781  0.1249204104256845  0.6677269805569247   T   T   T
  0.5394201785988437  0.0864902003568121  0.6255198763785701   T   T   T
 -0.0846750862804206  0.1262738886209593  0.5243495284246652   T   T   T
  0.0131449296076384  0.2070377548736744  0.5293762898139511   T   T   T
  0.8520682579267830  0.0498619195660752  0.3501771312966067   T   T   T
  0.8132877392478985  0.9422660055681286  0.3509165879965772   T   T   T
  0.8522460856603803  0.6975278569919729  0.7540675646246395   T   T   T
  0.7317083732512932  0.6371935552467473  0.7534669221486174   T   T   T
  0.8059065860724574  0.6263838529461833  0.6794424344978243   T   T   T
 -0.2249463823766380  0.5603134274867149  0.6337714128961027   T   T   T
  0.2549895010127107  0.3529660872435151  0.4373993515114938   T   T   T
  0.3663572283597369  0.3452604544089861  0.4749628342578504   T   T   T
  0.6578789173599225  0.9068346732968050  0.7155527433394856   T   T   T
  0.7921731739819096  0.9082697437774182  0.6992979407812103   T   T   T
  0.5718854831693592  0.7229684588187187  0.7609832799008045   T   T   T
  0.5192167303695060  0.6190044557167260  0.7506932612336387   T   T   T
  0.7436410911054298  0.0245187525639066  0.4796322258097466   T   T   T
  0.6369141228105226  0.0416300541038112  0.4380612843683614   T   T   T
  0.8802984703897607  0.8229795610866691  0.5664151405425030   T   T   T
  0.7459708507051072  0.8628040975408104  0.5651094125012371   T   T   T
  0.7114003083645087  0.2543814718693304  0.4195052588039012   T   T   T
  0.5967367051966638  0.1997815559194810  0.4014998866266092   T   T   T
  0.3624455841088207  0.4337906865144678  0.8800430937806824   T   T   T
  0.3903957358546485  0.5051578579881668  0.9226862578167190   T   T   T
  0.8416414345390824  0.7621508962711123  0.9067295767660305   T   T   T
  0.7790655332779521  0.8443105737601773  0.8769548943843897   T   T   T
  0.1235564113645459  0.6006957799196515  0.8572234610540086   T   T   T
  0.0832102530699616  0.5810568847370864  0.8019312986764594   T   T   T
 -0.0424966501407832  0.0021543551664783  0.4814821085919171   T   T   T
  0.8728872479430745 -0.0415261698224061  0.5240114308619235   T   T   T
  0.2291360228818304  0.2600885854386799  0.6744549444845205   T   T   T
  0.3271005134834581  0.3442101605142825  0.6715309601222550   T   T   T
  0.3553468452884428  0.5010043595422967  0.7511621929967762   T   T   T
  0.4312854828849254  0.4937435722811377  0.7023262245293003   T   T   T
  0.4045345315283438  0.2299772759092851  0.7206213817971101   T   T   T
  0.5382650471774575  0.1945739228625768  0.7350353205032085   T   T   T
  0.4233816929983498  0.8245436613848895  0.9162091138953407   T   T   T
  0.4733847500559467  0.7461563407622402  0.8787797791845025   T   T   T
  0.1701130012422305  0.1896836814077767  0.8754027957468630   T   T   T
  0.3093914703281880  0.2140763935479497  0.8750318080467240   T   T   T
  0.9316521562595190  0.4496240215378850  0.5584176126952467   T   T   T
  0.9896380934756372  0.4292701786724273  0.6126852496416396   T   T   T
  0.1670999608162551  0.1199998126544519  0.6387915913717828   T   T   T
  0.1396100164039856  0.2075059077486271  0.6067992725154886   T   T   T
  0.1080566202101373  0.4584538320871532  0.5463415931616441   T   T   T
  0.2132791420285854  0.4381095189466420  0.5064079938187052   T   T   T
  0.2640899528338676  0.3588474341691299  0.7523195614357521   T   T   T
  0.2035558296738450  0.4009369236281976  0.8016271366354514   T   T   T
  0.8338053078266793  0.2453738720489027  0.5724947466581715   T   T   T
  0.7494487444815722  0.3208130474588927  0.6010908532016610   T   T   T
  0.3367675249568934  0.2449208923455309  0.5644369850249858   T   T   T
  0.4375541875965246  0.1974969902932343  0.5967735445176812   T   T   T
  0.1180018170479367  0.5662930989742867  0.4853555140575838   T   T   T
  0.0867617610174049  0.6740554381601765  0.4812802039105807   T   T   T
  0.5511063394938703  0.5869824946333112  0.5208886087185768   T   T   T
  0.4314465998582206  0.5997796559839078  0.5523314645931121   T   T   T
  0.3414784141639100  0.9503366198929387  0.7958743386616632   T   T   T
  0.3821224773599937  0.8641406500197146  0.8306250661002570   T   T   T
 -0.0005977684119445  0.8758603380969251  0.8929341936150410   T   T   T
  0.1007260379724013  0.8647129830270126  0.8519615628760133   T   T   T
  0.4195168713908046  0.7013257239883866  0.6529346088962069   T   T   T
  0.3414827969029107  0.6453684744456575  0.6906594784342273   T   T   T
 -0.0094998259050486  0.8034691777796792  0.7776388554364437   T   T   T
  0.8775730808230515  0.7998141487618931  0.8109738868299532   T   T   T
  0.2075431172267604  0.2599561083388531  0.5080384895360323   T   T   T
  0.2154462863980863  0.1522715484136378  0.5233164236211711   T   T   T
  0.1332172204181395  0.8781993963119629  0.3460253079876234   T   T   T
  0.1624713170927546  0.8056386857687361  0.3893180550651653   T   T   T
  0.6131362952527217  0.4307692531822667  0.6253656894705809   T   T   T
  0.6713800340568096  0.4589513556064533  0.5744541598783338   T   T   T
  0.4171423893087259  0.7290924289815999  0.5054791077318653   T   T   T
  0.4057008501241007  0.8390703157318722  0.5008901137277916   T   T   T
  0.8204431101327242  0.8363917550281962  0.3994414818444628   T   T   T
  0.9502290089687419  0.8483738174730068  0.3720976392582666   T   T   T
  0.7154173347109181  0.0500309446533553  0.6493873355476162   T   T   T
  0.7178318603806012  0.1429016560641789  0.6163444600792219   T   T   T
  0.2536107374350745  0.0608403561889008  0.9070787439658391   T   T   T
  0.1802876146708783  0.9618331269525733  0.9083591595772782   T   T   T
 -0.0016078433206911  0.0041456430382927  0.8574721882804942   T   T   T
  0.8691426151601452  0.0526034286923275  0.8571473263278938   T   T   T
 -0.0590869962784967  0.7107146230256746  0.6194235288298192   T   T   T
  0.0388227678104730  0.7905777383548396  0.6303623409495065   T   T   T
  0.1437887194176938  0.8858718828928646  0.6950976803809603   T   T   T
  0.2228606633973204  0.8028907955302300  0.6713564966477971   T   T   T
  0.9174688277140373  0.4522115841023793  0.4721533353009862   T   T   T
  0.9167819514116574  0.5561798970291759  0.4873431923738673   T   T   T
  0.0160976552301192  0.4225528808800366  0.4053153716164239   T   T   T
  0.9474500987763123  0.3320573286672234  0.4269237395540106   T   T   T
  0.0406193646468623 -0.0111466074608142  0.7568517245833412   T   T   T
  0.1752458577818242  0.0183526028650310  0.7513272897214164   T   T   T
  0.9023382362247427  0.1900069213972319  0.4084948003118893   T   T   T
  0.8831607641802229  0.2198711307028995  0.4655500214502939   T   T   T
  0.3347909048279136  0.0112991629844627  0.5138722127275149   T   T   T
  0.2307714828352870  0.0197220689994810  0.5519145377822616   T   T   T
  0.3224632522024005  0.0333582112795873  0.6243674565761073   T   T   T
  0.2184534700319130  0.9560951079756755  0.6335216822983212   T   T   T
  0.6243312933734104  0.3901831670283218  0.9216277464942050   T   T   T
  0.6295230146271703  0.4564186981213726  0.8758009866533533   T   T   T
  0.5026099788026989  0.3432007684281503  0.3608872954945866   T   T   T
  0.6909664188896811  0.4234381896782906  0.3505597830512925   T   T   T
  0.6942847483184600  0.5948474306085605  0.3506942977468401   T   T   T
  0.3100945250028053  0.5990890305622943  0.3509406269364165   T   T   T
  0.5000406385084969  0.6786459688163173  0.3595167421633526   T   T   T
  0.2207254406643160  0.4633278624797619  0.3677113438324570   T   T   T
  0.4984054913750474  0.4057253588308104  0.3376816015976740   T   T   T
  0.6106815582984231  0.4604877035446213  0.3381387966592493   T   T   T
  0.3881956808111602  0.4617836955843805  0.3438427886360061   T   T   T
  0.6124790669831832  0.5599805174897270  0.3380371754498517   T   T   T
  0.3888448101482131  0.5611808692377709  0.3374301821680548   T   T   T
  0.5013004277772150  0.6155049649744581  0.3364509013253587   T   T   T
 
  0.00000000E+00  0.00000000E+00  0.00000000E+00
  0.00000000E+00  0.00000000E+00  0.00000000E+00
  0.00000000E+00  0.00000000E+00  0.00000000E+00
  0.00000000E+00  0.00000000E+00  0.00000000E+00
  0.00000000E+00  0.00000000E+00  0.00000000E+00
  0.00000000E+00  0.00000000E+00  0.00000000E+00
  0.00000000E+00  0.00000000E+00  0.00000000E+00
  0.00000000E+00  0.00000000E+00  0.00000000E+00
  0.00000000E+00  0.00000000E+00  0.00000000E+00
  0.00000000E+00  0.00000000E+00  0.00000000E+00
  0.00000000E+00  0.00000000E+00  0.00000000E+00
  0.00000000E+00  0.00000000E+00  0.00000000E+00
  0.00000000E+00  0.00000000E+00  0.00000000E+00
  0.00000000E+00  0.00000000E+00  0.00000000E+00
  0.00000000E+00  0.00000000E+00  0.00000000E+00
  0.00000000E+00  0.00000000E+00  0.00000000E+00
  0.00000000E+00  0.00000000E+00  0.00000000E+00
  0.00000000E+00  0.00000000E+00  0.00000000E+00
  0.00000000E+00  0.00000000E+00  0.00000000E+00
  0.00000000E+00  0.00000000E+00  0.00000000E+00
  0.00000000E+00  0.00000000E+00  0.00000000E+00
  0.00000000E+00  0.00000000E+00  0.00000000E+00
  0.00000000E+00  0.00000000E+00  0.00000000E+00
  0.00000000E+00  0.00000000E+00  0.00000000E+00
  0.00000000E+00  0.00000000E+00  0.00000000E+00
  0.00000000E+00  0.00000000E+00  0.00000000E+00
  0.00000000E+00  0.00000000E+00  0.00000000E+00
  0.00000000E+00  0.00000000E+00  0.00000000E+00
  0.00000000E+00  0.00000000E+00  0.00000000E+00
  0.00000000E+00  0.00000000E+00  0.00000000E+00
  0.00000000E+00  0.00000000E+00  0.00000000E+00
  0.00000000E+00  0.00000000E+00  0.00000000E+00
  0.00000000E+00  0.00000000E+00  0.00000000E+00
  0.00000000E+00  0.00000000E+00  0.00000000E+00
  0.00000000E+00  0.00000000E+00  0.00000000E+00
  0.00000000E+00  0.00000000E+00  0.00000000E+00
  0.00000000E+00  0.00000000E+00  0.00000000E+00
  0.00000000E+00  0.00000000E+00  0.00000000E+00
  0.00000000E+00  0.00000000E+00  0.00000000E+00
  0.00000000E+00  0.00000000E+00  0.00000000E+00
  0.00000000E+00  0.00000000E+00  0.00000000E+00
  0.00000000E+00  0.00000000E+00  0.00000000E+00
  0.00000000E+00  0.00000000E+00  0.00000000E+00
  0.00000000E+00  0.00000000E+00  0.00000000E+00
  0.00000000E+00  0.00000000E+00  0.00000000E+00
  0.00000000E+00  0.00000000E+00  0.00000000E+00
  0.00000000E+00  0.00000000E+00  0.00000000E+00
  0.00000000E+00  0.00000000E+00  0.00000000E+00
  0.00000000E+00  0.00000000E+00  0.00000000E+00
  0.00000000E+00  0.00000000E+00  0.00000000E+00
  0.00000000E+00  0.00000000E+00  0.00000000E+00
  0.00000000E+00  0.00000000E+00  0.00000000E+00
  0.00000000E+00  0.00000000E+00  0.00000000E+00
  0.00000000E+00  0.00000000E+00  0.00000000E+00
  0.00000000E+00  0.00000000E+00  0.00000000E+00
  0.00000000E+00  0.00000000E+00  0.00000000E+00
  0.00000000E+00  0.00000000E+00  0.00000000E+00
  0.00000000E+00  0.00000000E+00  0.00000000E+00
  0.00000000E+00  0.00000000E+00  0.00000000E+00
  0.00000000E+00  0.00000000E+00  0.00000000E+00
  0.00000000E+00  0.00000000E+00  0.00000000E+00
  0.00000000E+00  0.00000000E+00  0.00000000E+00
  0.00000000E+00  0.00000000E+00  0.00000000E+00
  0.00000000E+00  0.00000000E+00  0.00000000E+00
  0.00000000E+00  0.00000000E+00  0.00000000E+00
  0.00000000E+00  0.00000000E+00  0.00000000E+00
  0.00000000E+00  0.00000000E+00  0.00000000E+00
  0.00000000E+00  0.00000000E+00  0.00000000E+00
  0.00000000E+00  0.00000000E+00  0.00000000E+00
  0.00000000E+00  0.00000000E+00  0.00000000E+00
  0.00000000E+00  0.00000000E+00  0.00000000E+00
  0.00000000E+00  0.00000000E+00  0.00000000E+00
  0.00000000E+00  0.00000000E+00  0.00000000E+00
  0.00000000E+00  0.00000000E+00  0.00000000E+00
  0.00000000E+00  0.00000000E+00  0.00000000E+00
  0.00000000E+00  0.00000000E+00  0.00000000E+00
  0.00000000E+00  0.00000000E+00  0.00000000E+00
  0.00000000E+00  0.00000000E+00  0.00000000E+00
  0.00000000E+00  0.00000000E+00  0.00000000E+00
  0.00000000E+00  0.00000000E+00  0.00000000E+00
  0.00000000E+00  0.00000000E+00  0.00000000E+00
  0.00000000E+00  0.00000000E+00  0.00000000E+00
  0.00000000E+00  0.00000000E+00  0.00000000E+00
  0.00000000E+00  0.00000000E+00  0.00000000E+00
  0.00000000E+00  0.00000000E+00  0.00000000E+00