1-pos-1                                 
   1.00000000000000     
    11.0985002518000009    0.0000000000000000    0.0000000000000000
     0.0000000000000000   14.4173002242999999    0.0000000000000000
     0.0000000000000000    0.0000000000000000   26.7964000702000007
   Pt   H    C    O    K 
    96   166     6    81     2
Selective dynamics
Direct
  0.0000000000000000  0.0000000000000000  0.0018699899937573   F   F   F
  0.1249999521129013  0.1666699702868044  0.0018699899937573   F   F   F
  0.2499999943280642  0.0000000000000000  0.0018699899937573   F   F   F
  0.3750000365432271  0.1666699702868044  0.0018699899937573   F   F   F
  0.4999999886561284  0.0000000000000000  0.0018699899937573   F   F   F
  0.6250000308712913  0.1666699702868044  0.0018699899937573   F   F   F
  0.7499999829841855  0.0000000000000000  0.0018699899937573   F   F   F
  0.8750000251993484  0.1666699702868044  0.0018699899937573   F   F   F
  0.0000000000000000  0.3333300219343514  0.0018699899937573   F   F   F
  0.1249999521129013  0.4999999922211487  0.0018699899937573   F   F   F
  0.2499999943280642  0.3333300219343514  0.0018699899937573   F   F   F
  0.3750000365432271  0.4999999922211487  0.0018699899937573   F   F   F
  0.4999999886561284  0.3333300219343514  0.0018699899937573   F   F   F
  0.6250000308712913  0.4999999922211487  0.0018699899937573   F   F   F
  0.7499999829841855  0.3333300219343514  0.0018699899937573   F   F   F
  0.8750000251993484  0.4999999922211487  0.0018699899937573   F   F   F
  0.0000000000000000  0.6666699625079531  0.0018699899937573   F   F   F
  0.1249999521129013  0.8333300141555000  0.0018699899937573   F   F   F
  0.2499999943280642  0.6666699625079531  0.0018699899937573   F   F   F
  0.3750000365432271  0.8333300141555000  0.0018699899937573   F   F   F
  0.4999999886561284  0.6666699625079531  0.0018699899937573   F   F   F
  0.6250000308712913  0.8333300141555000  0.0018699899937573   F   F   F
  0.7499999829841855  0.6666699625079531  0.0018699899937573   F   F   F
  0.8750000251993484  0.8333300141555000  0.0018699899937573   F   F   F
  0.0000000000000000  0.2222199683821557  0.0864100026098313   F   F   F
  0.1249999521129013  0.0555599860957230  0.0864100026098313   F   F   F
  0.2499999943280642  0.2222199683821557  0.0864100026098313   F   F   F
  0.3750000365432271  0.0555599860957230  0.0864100026098313   F   F   F
  0.4999999886561284  0.2222199683821557  0.0864100026098313   F   F   F
  0.6250000308712913  0.0555599860957230  0.0864100026098313   F   F   F
  0.7499999829841855  0.2222199683821557  0.0864100026098313   F   F   F
  0.8750000251993484  0.0555599860957230  0.0864100026098313   F   F   F
  0.0000000000000000  0.5555599783168788  0.0864100026098313   F   F   F
  0.1249999521129013  0.3888900080300743  0.0864100026098313   F   F   F
  0.2499999943280642  0.5555599783168788  0.0864100026098313   F   F   F
  0.3750000365432271  0.3888900080300743  0.0864100026098313   F   F   F
  0.4999999886561284  0.5555599783168788  0.0864100026098313   F   F   F
  0.6250000308712913  0.3888900080300743  0.0864100026098313   F   F   F
  0.7499999829841855  0.5555599783168788  0.0864100026098313   F   F   F
  0.8750000251993484  0.3888900080300743  0.0864100026098313   F   F   F
  0.0000000000000000  0.8888900002512230  0.0864100026098313   F   F   F
  0.1249999521129013  0.7222199606033044  0.0864100026098313   F   F   F
  0.2499999943280642  0.8888900002512230  0.0864100026098313   F   F   F
  0.3750000365432271  0.7222199606033044  0.0864100026098313   F   F   F
  0.4999999886561284  0.8888900002512230  0.0864100026098313   F   F   F
  0.6250000308712913  0.7222199606033044  0.0864100026098313   F   F   F
  0.7499999829841855  0.8888900002512230  0.0864100026098313   F   F   F
  0.8750000251993484  0.7222199606033044  0.0864100026098313   F   F   F
  0.8765193169774769  0.2836444965679289  0.1707006625833696   T   T   T
  0.0032408586539626  0.4501327213304901  0.1706189895650998   T   T   T
  0.1278280282218330  0.6182119077390326  0.1713554801923187   T   T   T
  0.1285877435743462  0.9505636586062484  0.1718179892866618   T   T   T
  0.0030670479194520  0.1171846884950578  0.1713548288592025   T   T   T
  0.7518472822341175  0.7840564986390424  0.1722704042325260   T   T   T
  0.1281437505489774  0.2823509651926561  0.1725260419539463   T   T   T
  0.0035181122276757  0.7846366690083280  0.1716792712065136   T   T   T
  0.2526519127917468  0.7840838985339145  0.1721272290830750   T   T   T
  0.8769084823393839  0.9503505917828858  0.1711131367423046   T   T   T
  0.3774973989701008  0.9493383646376191  0.1716185364629949   T   T   T
  0.8787945853856494  0.6179712662125731  0.1712995427024722   T   T   T
  0.2529518645466052  0.1175861992869814  0.1728053123313699   T   T   T
  0.5017352853640318  0.1175892300981430  0.1723293556910466   T   T   T
  0.6263211796750423  0.9487492554198461  0.1714571413509284   T   T   T
  0.2531758801055928  0.4508385176942067  0.1709111822468473   T   T   T
  0.7499685014557638  0.1170568207742962  0.1715064164907757   T   T   T
  0.7514976566298871  0.4516061221850236  0.1718886778731486   T   T   T
  0.6247806689692422  0.2838549958393450  0.1737752939377616   T   T   T
  0.3785649713697334  0.2847081782905360  0.1731160021173578   T   T   T
  0.3775161626855344  0.6181298528015292  0.1734533695072728   T   T   T
  0.5029395302884085  0.7815351524603877  0.1752667831880406   T   T   T
  0.5033630647500549  0.4517046347250206  0.1725487196753304   T   T   T
  0.6272278000503310  0.6172560187419982  0.1735065793479713   T   T   T
  0.0043565870195573  0.0138589736474678  0.2569322769132359   T   T   T
  0.1288027161871635  0.5157653149930650  0.2567680264146889   T   T   T
  0.8818665217702313  0.8493659370156813  0.2587361307183870   T   T   T
  0.2528250243433364  0.3483952204148476  0.2579105072156994   T   T   T
  0.8809911849121441  0.1817767093464548  0.2568466975805013   T   T   T
  0.6283166773703871  0.8485672313037369  0.2610656403031157   T   T   T
  0.7604885306685096  0.3482031997585170  0.2567599845631854   T   T   T
  0.2530580733078347  0.6817867537921997  0.2594111300495160   T   T   T
  0.1303768076870231  0.8492657861688442  0.2606062100136236   T   T   T
  0.7597495118498221  0.6837158478528816  0.2576523788673616   T   T   T
  0.0062083390609995  0.6838858577326016  0.2594384941758992   T   T   T
  0.0050700599808911  0.3496473297746746  0.2578214443263864   T   T   T
  0.2552687342197297  0.0140039054383204  0.2592534094677753   T   T   T
  0.8851052117412397  0.5165030755922962  0.2582482266855690   T   T   T
  0.5042921280728978  0.0149965344787204  0.2572591600478134   T   T   T
  0.3777380830634743  0.8478630974505111  0.2605600779465301   T   T   T
  0.6313656394915731  0.1826136988702067  0.2613446258040176   T   T   T
  0.3801948609583259  0.1815444235873792  0.2598979305740060   T   T   T
  0.1301510049498136  0.1814465946805660  0.2614874231917859   T   T   T
  0.7561340697557415  0.0151073205030400  0.2573255532237242   T   T   T
  0.3735809282741335  0.5121911930741073  0.2599599412127467   T   T   T
  0.6375937040351264  0.5158833083771033  0.2615375531055144   T   T   T
  0.5024862357046850  0.3506365095508052  0.2636222849542587   T   T   T
  0.5016733440354753  0.6777921263757259  0.2669818572193952   T   T   T
  0.4838800528105295  0.7088722622525259  0.4755743336803238   T   T   T
  0.4268520463096213  0.7731009202112848  0.4323750070482851   T   T   T
  0.1779708116165203 -0.0048244522576380  0.4601299087189786   T   T   T
  0.3020520825390819 -0.0121830844192061  0.4866612908914428   T   T   T
  0.4597443830025009  0.8766789288986216  0.8780807988892509   T   T   T
  0.4428285871811617  0.8012469668287467  0.9195601913656727   T   T   T
  0.5271932000689525  0.4884471463819181  0.8754219134930004   T   T   T
  0.6104048400853023  0.4370996366359575  0.9129874171823730   T   T   T
  0.2179837005239101  0.2070492043477941  0.7310837502715850   T   T   T
  0.0909640406746421  0.1978464230061014  0.7571359721632607   T   T   T
  0.1507335316635760  0.5437757497009323  0.9008954758989443   T   T   T
  0.0402298537812677  0.4687907954628113  0.9054228683865329   T   T   T
  0.1367326010762932  0.8666945278445539  0.8340672604670438   T   T   T
  0.1836027175224727  0.9457922093788500  0.7973252338963522   T   T   T
  0.2940185149973215  0.3219990256519199  0.3833419666610989   T   T   T
  0.3604513611604104  0.2323984505049208  0.4066749642709444   T   T   T
  0.6373061769560224  0.2200976352517415  0.8687508175024958   T   T   T
  0.5575700812579737  0.3120770698863425  0.8671945764848362   T   T   T
  0.5363238241617752  0.2265040139967412  0.7961845483669177   T   T   T
  0.5962888836515445  0.2680118470599960  0.7472832084273349   T   T   T
  0.9606927303164846  0.1795519166643130  0.8751057620077978   T   T   T
  0.0475657219373848  0.1925007240937041  0.9196019116481825   T   T   T
  0.1850244187928561  0.6193395135973790  0.5909334664021391   T   T   T
  0.1164462374242804  0.6965499795483200  0.6234437295424825   T   T   T
  0.4690163955585154  0.3641641809986848  0.5032165391594661   T   T   T
  0.5791429176679649  0.4014860637940048  0.4726849540237032   T   T   T
  0.5573544559373059  0.8151307506669921  0.3538457662654932   T   T   T
  0.6981246830788947  0.8353636435990153  0.3601188191264421   T   T   T
  0.3906851674333363  0.8428981007216557  0.7170586815772790   T   T   T
  0.3791451360061783  0.9337856604851533  0.7500463711862657   T   T   T
  0.6001053566397794  0.8243369353024467  0.4693591254709718   T   T   T
  0.6201142590668345  0.8772266445318933  0.5210564616639088   T   T   T
  0.5273533688350335  0.2493465810049361  0.4480854919290902   T   T   T
  0.5503988077056465  0.1403255091733907  0.4438905742931968   T   T   T
  0.6852194051225455  0.4582318749227657  0.8274479297994778   T   T   T
  0.7282787607813277  0.5271326688086712  0.7848969362446128   T   T   T
  0.0171576019163079  0.6906387510950350  0.7725967959650814   T   T   T
  0.0981308755560620  0.6365734703895131  0.8133445538982013   T   T   T
  0.1845024886171132  0.2022967351316627  0.3606074145990591   T   T   T
  0.0926731274523847  0.1130766779064249  0.3541556621345710   T   T   T
  0.4917504041338958  0.0045195696523973  0.9125785522366879   T   T   T
  0.5991251326120177  0.9887786446037587  0.8768683302518049   T   T   T
  0.2530307999786241  0.3929529335023740  0.8099523677515070   T   T   T
  0.1826555794781481  0.4449067131989375  0.7660560680224275   T   T   T
  0.7519615170092305  0.9013427501865447  0.8767544448017748   T   T   T
  0.7857451303806782  0.9760451214538305  0.9173017637885256   T   T   T
  0.0605491195457857  0.8332341132545450  0.7561070838570847   T   T   T
  0.9330985925464669  0.8246262555271994  0.7304734639557986   T   T   T
  0.0891877197044338  0.6574360740362348  0.4953184542492017   T   T   T
  0.0566654303519861  0.6910788709949398  0.4411677484945514   T   T   T
  0.1902189222655090  0.7444459183957407  0.3868164717819173   T   T   T
  0.0955327306321344  0.7116260842049780  0.3473220498491708   T   T   T
  0.7684237903681620  0.3080782265938440  0.7146970081693401   T   T   T
  0.7230776935605309  0.3878856785754003  0.7521527842763948   T   T   T
  0.8679169251830611  0.4072172042945443  0.9071997484997960   T   T   T
  0.8684857959810531  0.4508745151922963  0.8531348216705292   T   T   T
  0.6065639664083556  0.9326793893323497  0.5990065442404564   T   T   T
  0.4755405045047671  0.9385135031271594  0.5703249071982148   T   T   T
  0.2694234889461516 -0.0148047900207711  0.5715961283322765   T   T   T
  0.3782429959149883  0.0566726460034583  0.5709869586716372   T   T   T
  0.0494618990118644  0.8041809010889336  0.6704576298401541   T   T   T
 -0.0265085355765315  0.7962607572809781  0.6203303382859771   T   T   T
  0.3397205974563504  0.2971517660690149  0.6577026586930987   T   T   T
  0.4021486396572441  0.2411189298392081  0.6130476792643931   T   T   T
  0.4791445604734054  0.3797936029548390  0.6436035897962965   T   T   T
  0.5971377695362631  0.3973860897976626  0.6764725354666568   T   T   T
  0.8695026863732406  0.1381887086545682  0.4206329338608261   T   T   T
  0.7631737376399328  0.0679962916033156  0.4212561405109633   T   T   T
  0.8383757566375741  0.9442590356291853  0.7503327542913834   T   T   T
  0.7418406029454114  0.8648840071971401  0.7411816546530362   T   T   T
  0.7600003945661605  0.9514124144999194  0.6633169262604542   T   T   T
  0.7824541130038238  0.8975229059324318  0.6144376775293000   T   T   T
  0.3172559901727067  0.6144828618526313  0.5281880250892568   T   T   T
  0.2458549849731254  0.5226740204032089  0.5296323202483748   T   T   T
  0.5201250756373245  0.0154407014995769  0.7052435850080957   T   T   T
  0.5398004468933694  0.1205194389188058  0.7222397080145315   T   T   T
  0.6433349420090795  0.7998835955822621  0.8109716515453737   T   T   T
  0.5555218638808047  0.8320346534391325  0.7658789736736215   T   T   T
  0.8125729485145310  0.8481112846797886  0.4789756476199636   T   T   T
  0.9381413684070383  0.7894349736403444  0.4774897051268524   T   T   T
  0.5860362958963589  0.4868975777724524  0.5982324401458722   T   T   T
  0.6731855084021735  0.5675040560979647  0.5920313543495387   T   T   T
  0.7302856050876131  0.1575893493943583  0.3598754545763203   T   T   T
  0.5992184694791413  0.1989221933323518  0.3707940768625262   T   T   T
  0.2899907270873358  0.6103346915666501  0.8661490226517855   T   T   T
  0.1920653616843535  0.6882074565046276  0.8763431058396636   T   T   T
  0.7741305416141088  0.7416627468516600  0.8731819359072993   T   T   T
  0.6639796811429168  0.7848471582805893  0.9030697519843276   T   T   T
  0.9023390180829255  0.6508770128860879  0.9068711100641834   T   T   T
  0.9225387285172238  0.6504581772291549  0.8473845983377160   T   T   T
  0.8203001215849334  0.3125037386116995  0.5580697185709268   T   T   T
  0.6991634870959713  0.3091352236434634  0.5242586920735450   T   T   T
  0.9598562817617567  0.4608059177190451  0.6324858728965607   T   T   T
  0.0413253172528669  0.5543556186026219  0.6396409831428009   T   T   T
  0.4777378941226412  0.6594626345099182  0.8702737091156708   T   T   T
  0.4467209408696532  0.6036034478450133  0.9182782063228669   T   T   T
  0.3024090060181641  0.3400579135310298  0.7391201551354913   T   T   T
  0.4036621840122766  0.2616536456921507  0.7341518165663551   T   T   T
  0.1603932935164298  0.8172537007526792  0.9169011581148953   T   T   T
  0.2791718037267706  0.8130078135798912  0.8836737582790268   T   T   T
  0.3111313419926527  0.2373644290687668  0.9027264996170731   T   T   T
  0.4433336432256688  0.1978795864322761  0.8957959117239868   T   T   T
  0.7261451531819004  0.6247692290757538  0.6793343382379965   T   T   T
  0.8414354572081846  0.5853347992374925  0.6508254121611806   T   T   T
 -0.0012368078091053  0.3171002758617615  0.5960232083566418   T   T   T
  0.8825454074504731  0.3038312033105789  0.6288636899598247   T   T   T
  0.7987370048404998  0.7226155444277547  0.6196503346073470   T   T   T
  0.8196268454592449  0.7622791910611035  0.5650655506701302   T   T   T
  0.0194178498177178  0.4838799980718577  0.7127255235349419   T   T   T
  0.0222324652021376  0.5292582858285885  0.7664262722230479   T   T   T
  0.6518165716882194  0.6830869735968128  0.7542197231602618   T   T   T
  0.5794294324938951  0.5926136388987673  0.7402845088475262   T   T   T
  0.2656612048133246  0.3638863803662677  0.5117708110263404   T   T   T
  0.3370404974480983  0.3715732506747331  0.5627368009137654   T   T   T
  0.0785536083004062  0.9808679089276207  0.5612967363109482   T   T   T
  0.0992030720449861  0.9112886772362073  0.6077455334465364   T   T   T
  0.5115422205763400  0.7988641061389161  0.6035700892891456   T   T   T
  0.4380803846202288  0.7278645939184498  0.6393825539808859   T   T   T
  0.2422996413820224  0.0788892443941737  0.7702278778962960   T   T   T
  0.3340359538179116  0.0464302839177747  0.8131508604774382   T   T   T
  0.7699213641962939  0.1054419505738503  0.8761918796644446   T   T   T
  0.7815226414418772  0.1785988773712242  0.9187165561278233   T   T   T
  0.3707723643618352  0.6516980182792782  0.7049952227490484   T   T   T
  0.2699861409946137  0.6824785317253754  0.6680973571405427   T   T   T
  0.9839602205099675 -0.0298164522018841  0.8020660980693879   T   T   T
  0.8615784916398214 -0.0061480212033474  0.8281946060306503   T   T   T
  0.8750229574876173  0.2200257292439095  0.4931029085535371   T   T   T
  0.0068206517028957  0.2282537720913041  0.4716208029262070   T   T   T
  0.2720651600103100  0.8873944344149185  0.4125683436257392   T   T   T
  0.2902524495120597  0.8504407141627836  0.3557614171182753   T   T   T
  0.4602090478809515  0.5008255494677185  0.7008981572305638   T   T   T
  0.3823296764932746  0.5071495111009848  0.7505197054537290   T   T   T
  0.5178890239723818  0.5947340390796643  0.5378857120652868   T   T   T
  0.4678102372615981  0.6855284651962944  0.5604502929536463   T   T   T
  0.9916053265225606  0.0622258375080045  0.4909611570279867   T   T   T
  0.9799184636152486  0.9519203430886118  0.4852258620481178   T   T   T
  0.4890724258865325  0.1130338525780495  0.6397757458537554   T   T   T
  0.5467870119114273  0.1323854612970842  0.5871730592660290   T   T   T
  0.2893031571709522  0.0799961208934077  0.9107476949855962   T   T   T
  0.1588848872731791  0.0388354881122289  0.9093540577599672   T   T   T
  0.9591407410982178  0.2905794511638112  0.8102577918243895   T   T   T
  0.9997191418546061  0.3548121577584964  0.7668069195974789   T   T   T
  0.7280845786516525  0.0630902935651933  0.5828571292824719   T   T   T
  0.7305627239269749  0.1655904889955614  0.5569902142008236   T   T   T
  0.0906331915842632  0.1284784406970537  0.6829750404639661   T   T   T
  0.0691325757278846  0.0621307749348906  0.6344497476191158   T   T   T
  0.6398411729349832  0.9772092027067084  0.4681783048682259   T   T   T
  0.6603995641433078  0.0688907374219858  0.4982872881626698   T   T   T
  0.8595133545427137  0.8155599012523012  0.4051343501551539   T   T   T
  0.8696802011243081  0.7893862619321362  0.3468188206472814   T   T   T
  0.7606584205760862  0.1644569159779750  0.6686732960792702   T   T   T
  0.9022144487721341  0.1659850988343956  0.6641713027509826   T   T   T
  0.0431981424692591  0.9735568188875452  0.3438917035509249   T   T   T
  0.9559854191280392  0.0286208990196320  0.3799138185250855   T   T   T
  0.1998691362807050  0.2668457414292350  0.4582449348723735   T   T   T
  0.1509461060675548  0.2560765159933830  0.5161683179620786   T   T   T
  0.2070181523713697  0.2703670476359614  0.5987359413579225   T   T   T
  0.1027083442007194  0.1975328645833770  0.6072351313612505   T   T   T
  0.1490219195781009  0.2824561976749372  0.8694977754927573   T   T   T
  0.1968430942883545  0.3754272029018294  0.8931187316006215   T   T   T
  0.5009874586382926  0.3496571629999817  0.3587450442886816   T   T   T
  0.6968795815649943  0.4232823897867743  0.3485708235496420   T   T   T
  0.7126109107421807  0.5940862183041216  0.3484097561310869   T   T   T
  0.3267928188913714  0.6121784399435171  0.3567377270337382   T   T   T
  0.5387116119672689  0.6852445604734969  0.3634040562198844   T   T   T
  0.4243978190934447  0.5695307526951475  0.4035939991562225   T   T   T
  0.5021284397708586  0.4137695199897573  0.3365631612804020   T   T   T
  0.6177034868145530  0.4638204296590490  0.3379588272640368   T   T   T
  0.3921250135445273  0.4726752929171172  0.3454658758270412   T   T   T
  0.6263297618378143  0.5630342396608802  0.3380821074987644   T   T   T
  0.4106057966404911  0.5731599917358118  0.3625035529150774   T   T   T
  0.5189497277486363  0.6238383301261361  0.3406523342395115   T   T   T
  0.5029204790228361  0.7496124541669559  0.4461017960811058   T   T   T
  0.2646418313983572 -0.0153687092573306  0.4530071738979722   T   T   T
  0.4292188256129429  0.8116359222999379  0.8833306407589336   T   T   T
  0.5826828653298370  0.4345515477023282  0.8778091715497455   T   T   T
  0.1541592878295470  0.1602637141312610  0.7399841777565046   T   T   T
  0.1228555389302158  0.4848947787114172  0.9187586342940597   T   T   T
  0.1158166359480698  0.9017254891345589  0.8030694366566130   T   T   T
  0.2804428900988899  0.2594978273639840  0.3998027767372951   T   T   T
  0.5552352454098483  0.2442456386586369  0.8603602234650488   T   T   T
  0.5319768463323944  0.2240314870478391  0.7589121310012696   T   T   T
  0.0473142701823161  0.1858103801287783  0.8827097400595619   T   T   T
  0.1533868645952186  0.6331846445923249  0.6250360812177984   T   T   T
  0.5473218371192778  0.3446229734678896  0.4872128392931011   T   T   T
  0.6177906537556158  0.8630390347735288  0.3474400342778767   T   T   T
  0.4373082029033488  0.8931755321184708  0.7325904407337250   T   T   T
  0.6562012020576060  0.8688879100132163  0.4868934860088291   T   T   T
  0.5114221661334627  0.1938477694142978  0.4266271397788883   T   T   T
  0.7463033446901501  0.4662342121264866  0.8006554456160153   T   T   T
  0.0187344706615218  0.6371467314056755  0.7963173510310037   T   T   T
  0.1118737046384166  0.1784282369194628  0.3425304274367100   T   T   T
  0.5096401239669283 -0.0102768890738275  0.8771679074659032   T   T   T
  0.2650958433808411  0.4244543384048667  0.7774615467681343   T   T   T
  0.7632608786097861  0.9707292713427935  0.8813914695326335   T   T   T
  0.0129718391090395  0.7924163058927668  0.7330795562890335   T   T   T
  0.0225312193382083  0.6817971994093337  0.4749732167243394   T   T   T
  0.1254923930375428  0.6977955246056982  0.3813581908373133   T   T   T
  0.6979916362215062  0.3455340330134117  0.7241972445758301   T   T   T
  0.9197352459455042  0.4193778440145750  0.8782044602527835   T   T   T
  0.5506203238939585  0.9013832159531943  0.5753299372799405   T   T   T
  0.3470087495879503 -0.0001805081911054  0.5542501912987922   T   T   T
  0.0573690334861377  0.8052516396241238  0.6330407794179241   T   T   T
  0.3575993895232421  0.3004496361670053  0.6206277660750361   T   T   T
  0.5339734029489546  0.4285447604443637  0.6562138143503154   T   T   T
  0.8239764221740390  0.0952354693888126  0.3981989221297035   T   T   T
  0.8074050498824651  0.8997672622732746  0.7241164325933988   T   T   T
  0.7486476428348011  0.9571583081338297  0.6265334595049052   T   T   T
  0.2319299431710481  0.5900392971399075  0.5300287609488187   T   T   T
  0.5472987332297254  0.0766303673494548  0.6937433914184926   T   T   T
  0.6316013405982568  0.7991336226585619  0.7742188774812023   T   T   T
  0.8982546883485918  0.8486064197712193  0.4676736518687247   T   T   T
  0.6234105711801059  0.5250341382558463  0.5717195446911606   T   T   T
  0.6640771411942195  0.1967857519399773  0.3453702583893496   T   T   T
  0.2014705789056596  0.6217772841153545  0.8651253125405126   T   T   T
  0.7105079527223225  0.7930189857683666  0.8721652562284250   T   T   T
  0.8613290042137318  0.6554453078063008  0.8745343097756286   T   T   T
  0.7718435758850002  0.2743717206088250  0.5339374175164746   T   T   T
  0.9731749161610130  0.5163935977724758  0.6535857763758185   T   T   T
  0.4450858432651938  0.5994264514861010  0.8810789114669040   T   T   T
  0.3266711860003649  0.2845547489245560  0.7182766049468803   T   T   T
  0.1890899544035298  0.8020079128459846  0.8827000168317704   T   T   T
  0.3629445986592036  0.1826003596718406  0.9113820087772189   T   T   T
  0.7678785111748745  0.6243123505443524  0.6463778011785357   T   T   T
  0.9194348489278212  0.3463815784386520  0.6040582334444212   T   T   T
  0.8286343071145911  0.7788238872003509  0.6000679910063551   T   T   T
  0.0415698399649944  0.4706164395761654  0.7482245258651843   T   T   T
  0.6625942329945022  0.6180147467653103  0.7423854638932604   T   T   T
  0.3334636266294358  0.3968964776530179  0.5284337528256990   T   T   T
  0.1207984293022961  0.9737351939932773  0.5939004016291451   T   T   T
  0.4958738605348981  0.7326159956315197  0.6110634915996185   T   T   T
  0.2929375821507954  0.0260014654325583  0.7828937816858050   T   T   T
  0.7796219868860120  0.1725562897784157  0.8816998782764498   T   T   T
  0.3380239103874637  0.7075601249959010  0.6880177195913193   T   T   T
  0.9060186830204341  0.0026852873026789  0.7966672170681053   T   T   T
  0.9363140092482727  0.1861174039234558  0.4730177905430309   T   T   T
  0.3011468950482680  0.8346395522482384  0.3914313652874741   T   T   T
  0.4346604514478765  0.5437244961575546  0.7280792824832830   T   T   T
  0.4618362378363955  0.6462411683997061  0.5284744428099076   T   T   T
  0.0325727250948364  0.0027567234472353  0.4978471399511963   T   T   T
  0.4686333479768893  0.1372326046178390  0.6054003565492713   T   T   T
  0.2430359935846726  0.0204807389550355  0.9148885005118341   T   T   T
  0.9853881370847354  0.2887386882314047  0.7755353911155571   T   T   T
  0.6861691581339983  0.1056382718977140  0.5596474944469330   T   T   T
  0.0475068375867833  0.1227305918898123  0.6502074805885161   T   T   T
  0.6404965924124354  0.0470630523771725  0.4637990292315668   T   T   T
  0.8164431032915632  0.7872666132300410  0.3762617331252522   T   T   T
  0.8294620486931527  0.2063382136710183  0.6669152316800636   T   T   T
  0.0421704639827077  0.0126245254013000  0.3741887382583378   T   T   T
  0.1471798982890426  0.2928762991115285  0.4848495253579082   T   T   T
  0.1291018642383327  0.2492869012705496  0.5844097551981230   T   T   T
  0.2215842106434593  0.3229836097555005  0.8715329184937481   T   T   T
  0.2964749942582945  0.4316704816228817  0.3621182406377643   T   T   T
  0.0792426695667771  0.5073822127640011  0.3762596120305977   T   T   T
  0.4391935890659989  0.0189261989036487  0.3750205664263547   T   T   T
 
  0.00000000E+00  0.00000000E+00  0.00000000E+00
  0.00000000E+00  0.00000000E+00  0.00000000E+00
  0.00000000E+00  0.00000000E+00  0.00000000E+00
  0.00000000E+00  0.00000000E+00  0.00000000E+00
  0.00000000E+00  0.00000000E+00  0.00000000E+00
  0.00000000E+00  0.00000000E+00  0.00000000E+00
  0.00000000E+00  0.00000000E+00  0.00000000E+00
  0.00000000E+00  0.00000000E+00  0.00000000E+00
  0.00000000E+00  0.00000000E+00  0.00000000E+00
  0.00000000E+00  0.00000000E+00  0.00000000E+00
  0.00000000E+00  0.00000000E+00  0.00000000E+00
  0.00000000E+00  0.00000000E+00  0.00000000E+00
  0.00000000E+00  0.00000000E+00  0.00000000E+00
  0.00000000E+00  0.00000000E+00  0.00000000E+00
  0.00000000E+00  0.00000000E+00  0.00000000E+00
  0.00000000E+00  0.00000000E+00  0.00000000E+00
  0.00000000E+00  0.00000000E+00  0.00000000E+00
  0.00000000E+00  0.00000000E+00  0.00000000E+00
  0.00000000E+00  0.00000000E+00  0.00000000E+00
  0.00000000E+00  0.00000000E+00  0.00000000E+00
  0.00000000E+00  0.00000000E+00  0.00000000E+00
  0.00000000E+00  0.00000000E+00  0.00000000E+00
  0.00000000E+00  0.00000000E+00  0.00000000E+00
  0.00000000E+00  0.00000000E+00  0.00000000E+00
  0.00000000E+00  0.00000000E+00  0.00000000E+00
  0.00000000E+00  0.00000000E+00  0.00000000E+00
  0.00000000E+00  0.00000000E+00  0.00000000E+00
  0.00000000E+00  0.00000000E+00  0.00000000E+00
  0.00000000E+00  0.00000000E+00  0.00000000E+00
  0.00000000E+00  0.00000000E+00  0.00000000E+00
  0.00000000E+00  0.00000000E+00  0.00000000E+00
  0.00000000E+00  0.00000000E+00  0.00000000E+00
  0.00000000E+00  0.00000000E+00  0.00000000E+00
  0.00000000E+00  0.00000000E+00  0.00000000E+00
  0.00000000E+00  0.00000000E+00  0.00000000E+00
  0.00000000E+00  0.00000000E+00  0.00000000E+00
  0.00000000E+00  0.00000000E+00  0.00000000E+00
  0.00000000E+00  0.00000000E+00  0.00000000E+00
  0.00000000E+00  0.00000000E+00  0.00000000E+00
  0.00000000E+00  0.00000000E+00  0.00000000E+00
  0.00000000E+00  0.00000000E+00  0.00000000E+00
  0.00000000E+00  0.00000000E+00  0.00000000E+00
  0.00000000E+00  0.00000000E+00  0.00000000E+00
  0.00000000E+00  0.00000000E+00  0.00000000E+00
  0.00000000E+00  0.00000000E+00  0.00000000E+00
  0.00000000E+00  0.00000000E+00  0.00000000E+00
  0.00000000E+00  0.00000000E+00  0.00000000E+00
  0.00000000E+00  0.00000000E+00  0.00000000E+00
  0.00000000E+00  0.00000000E+00  0.00000000E+00
  0.00000000E+00  0.00000000E+00  0.00000000E+00
  0.00000000E+00  0.00000000E+00  0.00000000E+00
  0.00000000E+00  0.00000000E+00  0.00000000E+00
  0.00000000E+00  0.00000000E+00  0.00000000E+00
  0.00000000E+00  0.00000000E+00  0.00000000E+00
  0.00000000E+00  0.00000000E+00  0.00000000E+00
  0.00000000E+00  0.00000000E+00  0.00000000E+00
  0.00000000E+00  0.00000000E+00  0.00000000E+00
  0.00000000E+00  0.00000000E+00  0.00000000E+00
  0.00000000E+00  0.00000000E+00  0.00000000E+00
  0.00000000E+00  0.00000000E+00  0.00000000E+00
  0.00000000E+00  0.00000000E+00  0.00000000E+00
  0.00000000E+00  0.00000000E+00  0.00000000E+00
  0.00000000E+00  0.00000000E+00  0.00000000E+00
  0.00000000E+00  0.00000000E+00  0.00000000E+00
  0.00000000E+00  0.00000000E+00  0.00000000E+00
  0.00000000E+00  0.00000000E+00  0.00000000E+00
  0.00000000E+00  0.00000000E+00  0.00000000E+00
  0.00000000E+00  0.00000000E+00  0.00000000E+00
  0.00000000E+00  0.00000000E+00  0.00000000E+00
  0.00000000E+00  0.00000000E+00  0.00000000E+00
  0.00000000E+00  0.00000000E+00  0.00000000E+00
  0.00000000E+00  0.00000000E+00  0.00000000E+00
  0.00000000E+00  0.00000000E+00  0.00000000E+00
  0.00000000E+00  0.00000000E+00  0.00000000E+00
  0.00000000E+00  0.00000000E+00  0.00000000E+00
  0.00000000E+00  0.00000000E+00  0.00000000E+00
  0.00000000E+00  0.00000000E+00  0.00000000E+00
  0.00000000E+00  0.00000000E+00  0.00000000E+00
  0.00000000E+00  0.00000000E+00  0.00000000E+00
  0.00000000E+00  0.00000000E+00  0.00000000E+00
  0.00000000E+00  0.00000000E+00  0.00000000E+00
  0.00000000E+00  0.00000000E+00  0.00000000E+00