1-pos-1
1.000
11.0985002518  0.0000000000000000  0.0000000000000000
0.0000000000000000  14.4173002243  0.0000000000000000
0.0000000000000000  0.0000000000000000  26.7964000702
Pt  H  C  O  
96  170  6  81  
Direct
  0.4999999886561249  0.3333300219343480  0.0018699899937576
  0.1249999521128992  0.1666699702868031  0.0018699899937576
  0.2499999943280624  0.0000000000000000  0.0018699899937576
  0.3750000365432257  0.1666699702868031  0.0018699899937576
  0.4999999886561249  0.0000000000000000  0.0018699899937576
  0.6250000308712881  0.1666699702868031  0.0018699899937576
  0.7499999829841874  0.0000000000000000  0.0018699899937576
  0.8750000251993506  0.1666699702868031  0.0018699899937576
  0.0000000000000000  0.3333300219343480  0.0018699899937576
  0.1249999521128992  0.4999999922211510  0.0018699899937576
  0.2499999943280624  0.3333300219343480  0.0018699899937576
  0.3750000365432257  0.4999999922211510  0.0018699899937576
  0.0000000000000000  0.0000000000000000  0.0018699899937576
  0.6250000308712881  0.4999999922211510  0.0018699899937576
  0.7499999829841874  0.3333300219343480  0.0018699899937576
  0.8750000251993506  0.4999999922211510  0.0018699899937576
  0.0000000000000000  0.6666699625079541  0.0018699899937576
  0.1249999521128992  0.8333300141554991  0.0018699899937576
  0.2499999943280624  0.6666699625079541  0.0018699899937576
  0.3750000365432257  0.8333300141554991  0.0018699899937576
  0.4999999886561249  0.6666699625079541  0.0018699899937576
  0.6250000308712881  0.8333300141554991  0.0018699899937576
  0.7499999829841874  0.6666699625079541  0.0018699899937576
  0.8750000251993506  0.8333300141554991  0.0018699899937576
  0.0000000000000000  0.5555599783168760  0.0864100026098289
  0.3750000365432257  0.7222199606033073  0.0864100026098289
  0.6250000308712881  0.0555599860957249  0.0864100026098289
  0.4999999886561249  0.2222199683821562  0.0864100026098289
  0.2499999943280624  0.8888900002512240  0.0864100026098289
  0.6250000308712881  0.7222199606033073  0.0864100026098289
  0.4999999886561249  0.8888900002512240  0.0864100026098289
  0.6250000308712881  0.3888900080300730  0.0864100026098289
  0.4999999886561249  0.5555599783168760  0.0864100026098289
  0.7499999829841874  0.2222199683821562  0.0864100026098289
  0.8750000251993506  0.0555599860957249  0.0864100026098289
  0.3750000365432257  0.0555599860957249  0.0864100026098289
  0.2499999943280624  0.2222199683821562  0.0864100026098289
  0.1249999521128992  0.0555599860957249  0.0864100026098289
  0.0000000000000000  0.2222199683821562  0.0864100026098289
  0.1249999521128992  0.7222199606033073  0.0864100026098289
  0.1249999521128992  0.3888900080300730  0.0864100026098289
  0.0000000000000000  0.8888900002512240  0.0864100026098289
  0.8750000251993506  0.7222199606033073  0.0864100026098289
  0.7499999829841874  0.8888900002512240  0.0864100026098289
  0.8750000251993506  0.3888900080300730  0.0864100026098289
  0.7499999829841874  0.5555599783168760  0.0864100026098289
  0.2499999943280624  0.5555599783168760  0.0864100026098289
  0.3750000365432257  0.3888900080300730  0.0864100026098289
  0.6256410183775818  0.6171919750274906  0.1708940002389590
  0.7508719926954482  0.1163869777208216  0.1711439965064595
  0.5004189641838540  0.1165920091728973  0.1712179989842104
  0.6255419959894153  0.2835080033299685  0.1712840153145893
  0.1253700021112613  0.9503379819272118  0.1713130117468700
  0.7515579412314916  0.4498899862727193  0.1713870142246209
  0.8758809550347502  0.6171049961909200  0.1713870142246209
  0.8758369851299047  0.2834810218567420  0.1714279898779595
  0.4995679483001118  0.7838049998399519  0.1714640021780249
  0.2493629713213861  0.7828089742473242  0.1714759813990829
  0.5003449902250873  0.4500869718356067  0.1714979992820245
  0.3740419791698184  0.9506329747437470  0.1715480059992137
  0.0010620353860954  0.4502619699254535  0.1715590149406845
  0.3750299504948830  0.2835399788033809  0.1715599852202717
  0.0010830292136138  0.7833769724073540  0.1716230160749976
  0.8761929791750783  0.9506320036881553  0.1716520125072782
  0.1257820397646603  0.2835189623859319  0.1717129908474925
  0.0008149749781312  0.1172700140592438  0.1717479955495250
  0.2500749594117336  0.1168340100985713  0.1718839839655231
  0.1247480261826776  0.6167470234831516  0.1719819822038358
  0.7498399613632740  0.7840929871840041  0.1722529887562449
  0.2498929528383975  0.4501659741441028  0.1724510004289360
  0.3740990139029480  0.6152129637316094  0.1725139939652161
  0.6254890158581669  0.9486049945015987  0.1726930105490645
  0.5002900278440303  0.6851420062232629  0.2559990141223772
  0.6284440097092218  0.5165530220039228  0.2570240025509738
  0.5022739895956578  0.3497149897386423  0.2571760005801617
  0.5006319659360157  0.0183120276260196  0.2572110052821941
  0.7519050151525266  0.6832990120713331  0.2575790024748830
  0.8775619929747164  0.8511640049859485  0.2580039849341001
  0.3730489621179683  0.8515419536944601  0.2581129921138835
  0.7516820120490578  0.0189419652605770  0.2582199840976011
  0.6276320081058034  0.1843169635547367  0.2582649901430714
  0.7516789485720808  0.3507110153312700  0.2584100096229201
  0.2496789599613315  0.3500289875003293  0.2584400136532337
  0.8765419452436579  0.5172360208904553  0.2584550156683905
  0.2481500146430442  0.6850200000242774  0.2584730031592003
  0.3766050281723525  0.1849539760228908  0.2586189929186363
  0.0008380411577223  0.3507199629149363  0.2586400032035450
  0.1251379887813898  0.8517290206180894  0.2586589982923877
  0.8766009622265961  0.1841769928273047  0.2587580041287333
  0.0014600170863061  0.0182260198450406  0.2587840150853608
  0.2501229839184604  0.0179750019745866  0.2589460144579865
  0.0004789836355716  0.6843789646115290  0.2591820163083631
  0.1260809990767044  0.1844459752262051  0.2594520152627393
  0.1243599557315099  0.5173300051995089  0.2594720179496151
  0.3752309686459289  0.5174420233981227  0.2610099857323036
  0.6260189973751783  0.8516319844200333  0.2615190093311551
  0.6343969761912728  0.4708349617745152  0.3976300164233394
  0.5897489617066460  0.4878029791005106  0.4867179906939886
  0.6674869425532087  0.6298120215805432  0.4445479978203314
  0.6036489478759467  0.6345899618972674  0.3535730163447021
  0.5246660240473122  0.7499610073858313  0.4132609966633233
  0.4013270170695010  0.6764260193155197  0.4284830040572798
  0.5656439931135597  0.6624659854070374  0.4916720143558322
  0.4406550334768718  0.5239279811395305  0.4748669958152714
  0.5050540048499709  0.4045380140013820  0.4103020171066560
  0.4520729725789994  0.6642890035582235  0.3368590174931146
  0.6811640157213047  0.8767009636586582  0.4821639834512131
  0.7722539807673512  0.8148219720221840  0.5102080116800539
  0.0708200191167743  0.8822379920036358  0.4582269994414348
  0.1194759625098844  0.9870169711812956  0.4650310104101604
  0.5462590316215682  0.8050379626858001  0.8193720030481737
  0.4759009668124644  0.7815849586739885  0.7713620092941733
  0.4685150139233157  0.6585439612332815  0.8172249982322553
  0.4042149748361192  0.5648459748569460  0.8401069897831234
  0.3174639744165942  0.0365159906369059  0.7694329815193760
  0.2188269536333174  0.0665650284775557  0.8095700147470625
  0.2063059826149618  0.4798220119145695  0.8984540063937144
  0.1187959607232668  0.4036259847174361  0.9190909948903513
  0.0445619668224802  0.7174239863970231  0.7618159882118687
  0.1373449534096086  0.7920910172039137  0.7835929805866375
  0.4927970334652166  0.0439949914430527  0.3789070163678975
  0.8169729958360319  0.1991320119117095  0.8730139846663887
  0.7160509816370105  0.2768929645559784  0.8779889812946953
  0.7347309830152488  0.2039130041174362  0.8018689802999208
  0.7785130246403045  0.1376920067637965  0.7570650142128806
  0.4443330078944855  0.2664580011675883  0.6150610140475108
  0.4146799923938890  0.3458510208170473  0.6577180126370780
  0.6277079643143789  0.2879949737747517  0.5196780150885418
  0.5920639591763116  0.2592989631789061  0.4641610054864048
  0.5904169798921480  0.9081459632734881  0.3553440005021142
  0.6930799500367139  0.8247739739759316  0.3573649809270267
  0.6378719502080319  0.7796929955757916  0.6276749845478204
  0.6131579804123818  0.8857629931626144  0.6421370017958375
  0.4100399961032508  0.8831609803435451  0.4913689885770438
  0.3369079528915238  0.8621789660070373  0.4413439853494369
  0.7913749426257413  0.6240350037821887  0.5025350033856056
  0.8223899439493816  0.5205770070148070  0.5104709947666454
  0.0983100396671201  0.3941430026144787  0.6921159913799412
  0.0656440044574348  0.4569870154257602  0.6457739828733212
  0.7609520032790272  0.5137239902597373  0.7294510064334216
  0.7438779846548202  0.4343789685009535  0.6874330115889523
  0.3420149492166181  0.1598489983662593  0.3852420091115228
  0.3322379525469643  0.0902119661632522  0.3394810114854396
  0.4851830317458136  0.8717209744177471  0.9000049983139394
  0.4164479790186420  0.2609560001850256  0.8777549946403844
  0.3411919551369884  0.2893989814381201  0.8281969944418119
  0.6420899975962281  0.0463540322808564  0.9236060043574084
  0.6638760042200317  0.1156249765257932  0.8789329886962020
  0.1126670245195696  0.8314159942231480  0.5974309966286645
  0.1835579541181337  0.7472469763681482  0.5757180053882087
  0.1112280012607820  0.4971880233109339  0.3677449946330216
  0.0647980343004780  0.4032519895924049  0.3884090016843191
  0.2379309762660702  0.6907780128774800  0.4968699886969790
  0.3107180179088347  0.6248289804506295  0.5367329925781577
  0.1079639566441119  0.2396780219763908  0.6878540009744835
  0.0393029679779711  0.2900930087417296  0.7343839824919111
  0.8617579657619807  0.2806529611681480  0.7655160001440782
  0.8763769679982232  0.3811760117707352  0.7449370045120024
  0.7870959861070622  0.6715719898570747  0.6279630083114522
  0.6552739410733001  0.6285570015893867  0.6254280036159692
  0.5786109703388527  0.0584909786770389  0.5883560089675257
  0.5480049431916344  0.0258519968511023  0.5346589826419571
  0.3055700250536079  0.5893860062425502  0.6123209818115518
  0.3076640016696134  0.4895479659987925  0.5846040124405069
  0.6542069500626833  0.0284560211424687  0.6677939929662515
  0.0194419962251210  0.1962289718592137  0.5630720156615197
  0.7098419445205927  0.6748489556734880  0.7630260014940654
  0.7253429578194028  0.6590740188641214  0.7048719958844466
  0.9152689795499636  0.6250139665408480  0.7276330010344735
  0.0241170422964661  0.5578400168461838  0.7116049898510743
  0.3289940007351723  0.4051540100520871  0.4548809902847903
  0.4244099556817204  0.3430160240170840  0.4838280129433533
  0.7701400014487316  -0.0060699991425925  0.7296040120606424
  0.8408349586230354  0.0042550268805947  0.7822229831278809
  0.3924199577590354  0.6135229801964859  0.7528379911910097
  0.3995169526874471  0.5436329880118413  0.7083360059662794
  0.6343430049351202  0.0134799856406150  0.4513389846515204
  0.8802229831382485  0.8076279760322006  0.5895740083970945
  0.7484669830640188  0.8520639654361116  0.5887059813509591
  0.7483630050513308  0.2271360066762427  0.4245550137405113
  0.6544220241669175  0.1608779704878910  0.3975510132738696
  0.3596959867935802  0.4056459884315097  0.8773780037022907
  0.3918519530866043  0.4838219979801159  0.9165119917474308
  0.7307629694097295  0.7184189715729453  0.9163209959425245
  0.6690469731525855  0.7963640086129549  0.8849770095189881
  0.9244749981724734  0.4051089946893005  0.8201819999113024
  0.5078530316819936  0.2347339617923725  0.6957909999535562
  0.6059160109411494  0.2135680017823516  0.7407130042842301
  0.3397989741351190  0.3962449911649372  0.7246430098494596
  0.2605389858445991  0.4466259909845665  0.6839600077617145
  0.4884799636888539  0.1046150095048902  0.7449860036311587
  0.5086680066601248  0.0280329877100567  0.7874449905480349
  0.3529510214107251  0.7327380186059015  0.9183160027292553
  0.3308869592001318  0.6920799903426064  0.8632789829752435
  0.1057489726875171  0.1460570264362543  0.8717859838933820
  0.2398209613563168  0.1901199917707258  0.8707789829555954
  0.9729669554450530  0.4593249704850013  0.5523109806252993
  0.1921249674841585  0.1560159645013712  0.5987640115077685
  0.1843540076208191  0.2647590006876847  0.5927829842212623
  0.1549449890512098  0.4222799626339609  0.5684329969733249
  0.2607839739004906  0.3745550079409676  0.5367360153722563
  0.3979350272379114  0.2624949845756400  0.7551069900058025
  0.2530510371925709  0.2791909676137325  0.7520790086431032
  0.8164179658896207  0.2452419624334811  0.5603119807386849
  0.7282829946946291  0.3147449889648338  0.5926340089861732
  0.4612860191781034  0.2428719625397140  0.5367429939215955
  0.4423659853684953  0.1505349799362574  0.5647719828168338
  0.0434290209545950  0.7214080194064201  0.4563570094476773
  0.0849220145620252  0.7707470072150434  0.5073540089110384
  0.6391030174414435  0.5591700162012420  0.5587179979690554
  0.5025089763002423  0.5511619981809607  0.5839150019782197
  0.2623049902195435  0.9068620196979219  0.7920060136585950
  0.3027790173230836  0.8251089881550675  0.8275769857855568
  0.0440339675552775  0.8271500082865899  0.9005180149864771
  0.1864469931119203  0.7909059825764734  0.9059529987760333
  0.3128439808285701  0.6578810077086064  0.6809069857219749
  0.1741110020416137  0.6612999557247488  0.6700170154559868
  0.8648290113291034  0.7885989625739391  0.8717460158380763
  0.2823730169751294  0.2561080051434717  0.4483829905705063
  0.2407039635437890  0.1496079686517540  0.4519120093846851
  0.0473829786069258  0.2570570039010157  0.3482960015356399
  0.1296489586299403  0.2465050283138259  0.3971209928244878
  0.6003399422295267  0.3580940203560661  0.6402789910231379
  0.6460189969214233  0.4509809672299924  0.6157199831610386
  0.3888849756344337  0.7766350027953063  0.5388520085598285
  0.4878399673074645  0.8407370181256328  0.5668080025753488
  0.7739750241125457  0.8048110131217974  0.4246459961110392
  0.8494190013169612  0.8584669672855429  0.3828239977431952
  0.7818289681610547  0.0716620299172665  0.6086110058543501
  0.7105479858615142  0.1654139792400550  0.6034769953290708
  0.2292099781308219  0.0489930145735239  0.9034069851390796
  0.1978150155597765  0.9385970181291011  0.9141979868871677
  0.7818059920837276  0.0009510102298411  0.8641470100213789
  0.0085179977343937  0.6997039558763709  0.6021380094986607
  0.1129759851829208  0.9471249670576232  0.6675800089988163
  0.2059470151950751  0.8620739532809064  0.6617210130296303
  0.8923539915578920  0.6940459617491133  0.4053540017145643
  0.9792009508886065  0.4604040213307192  0.4636149993079006
  0.8994490042364951  0.3728299970434292  0.4753740042180571
  0.9832089698993540  0.0203900172311403  0.7184490061935515
  0.1218169995338541  0.0288370217399829  0.7323159808254623
  0.9450579593669779  0.2606479674791161  0.4251949877651965
  0.9149979519397681  0.2291390169174616  0.4815340107699658
  0.2988400166465814  0.0030400282520390  0.4728829979700114
  0.2387609983222940  0.0471810248394149  0.5212269918127012
  0.3501590225552965  0.0285679699799688  0.5826340090123707
  0.2280319811309229  0.9866529640566362  0.6034169872684437
  0.7991619406920775  0.4143150178652827  0.8813439841967448
  0.6750139955878249  0.4280949903226189  0.9128569858606916
  0.9304659878099439  0.0836370181129765  0.8721199839820712
  0.9575479352065079  0.1442890116482264  0.9207680112015825
  0.9315790210774791  0.1194960202809848  0.5382149826923508
  0.9845119387394596  0.4625150268259577  0.8648859898824096
  0.9857899492524296  0.5452459807107660  0.5893399844243381
  0.9772739337678445  0.7978219792227762  0.8310810012411410
  0.9703669645142674  0.6493620063637506  0.6531189993488322
  0.9616549766054221  0.5975219955175946  0.4099929830581157
  0.4873009755640504  0.9589839834712389  0.4156600129428082
  0.5728519940312535  0.9449759516720811  0.8762500163636626
  0.5711979867704957  0.9884089793719952  0.7106740065871043
  0.9295800122477589  0.9818309794327171  0.3445329960671502
  0.9670969731481714  0.9677709961594033  0.4016620132481724
  0.7380829674416099  0.0138729857107981  0.4939560151857820
  0.9444769799685270  0.9856740012979769  0.4962440090894176
  0.8740119637720221  0.9552549912768900  0.5445179935280424
  0.8921480177823246  0.9290949617198783  0.8546320005674207
  0.5392429485262535  0.4758080149040571  0.4096180073160878
  0.5332129446084588  0.5257480167628280  0.4601730071090092
  0.4769389448940644  0.5300579776454674  0.3694819816864341
  0.5721119841367934  0.6266789800750421  0.4557280070460171
  0.5087649566962187  0.6302979655430744  0.3657960014897942
  0.4964640154066189  0.6774060224908844  0.4169049936085918
  0.4035700228302084  0.4884639905140024  0.3418299837292896
  0.7187290011284441  0.8141129627180167  0.4807259917844575
  0.0475530015791462  0.9487050132275437  0.4550589992706057
  0.5436229997851717  0.7598580059764207  0.7916230144507496
  0.3917110331456649  0.6238629882202307  0.8219089856212770
  0.2331179836284986  0.0249779774574601  0.7806579967905319
  0.1208629967623280  0.4696629670364490  0.9099009917796774
  0.0505270070079109  0.7750639735701658  0.7813149880264396
  0.7315390202098008  0.2129710106767982  0.8640849867646860
  0.7437799533915580  0.2002970011772927  0.7646870081921069
  0.9583539900605004  0.1469259824685969  0.8836879930873215
  0.4728629887762399  0.2967149836270889  0.6473709884370495
  0.5618819532836080  0.2928920071236863  0.4945650149005663
  0.6136610213524489  0.8460029832382993  0.3404119947494096
  0.6161059462868426  0.8418730144456926  0.6134469912725597
  0.3876979684081318  0.9093119929557767  0.4566310014757394
  0.7783039873877601  0.5734059686199942  0.5260019988906965
  0.1029489547305900  0.4590100016677225  0.6793269973694691
  0.7883399379642296  0.4522379986934458  0.7181550114786135
  0.3909810246025118  0.1245129789954942  0.3599599936831369
  0.5449630006557927  0.8796429846570494  0.8734730015480511
  0.3406250316917256  0.2875550162305986  0.8662499790714145
  0.6435080270274973  0.0487329797582899  0.8865549826754280
  0.1042179550171572  0.7770259913931922  0.5741739920173227
  0.0739990071962022  0.4698759750165994  0.3973350141103686
  0.3137140082900223  0.6812059711045412  0.5151509890819812
  0.1186509861804461  0.2822620002835922  0.7160489823160335
  0.9222359569113830  0.3316629969278568  0.7641560040287594
  0.7050659839135365  0.6777680181432469  0.6424049855541479
  0.5087870317509054  0.0432279962478384  0.5667110119350691
  0.3451040152365463  0.5527099995163551  0.5851930094684156
  0.9466639421210091  0.1875919872599666  0.5411819857148357
  0.7571340099431145  0.6406019751488127  0.7384010146200328
  -0.0005809793984511  0.6238140192739636  0.7146830152494086
  0.3360449534066658  0.3536089920224663  0.4780120078235717
  0.8354969400929737  0.0277800277284193  0.7472679892650426
  0.4111540204956902  0.6102519794358500  0.7169120086904501
  0.8302889391299044  0.8521580191062791  0.5717160125936893
  0.6631209472474789  0.2211359928973662  0.4134309821833211
  0.3580280136818981  0.4743809793509427  0.8825029831637193
  0.7310699478232722  0.7470839777509704  0.8828519852675654
  0.9082710070097184  0.4497430100728044  0.8476649826280365
  0.5189630012456743  0.2072329738243391  0.7302789907873600
  0.3457079707123245  0.4330629800908612  0.6934179946306988
  0.4700449503665073  0.0376530273736709  0.7552020027684622
  0.3099079985552251  0.7448660174184175  0.8867590026178710
  0.1934790243079679  0.1316609885670993  0.8663789889380736
  0.0172880115012730  0.4822330042265290  0.5819170097158359
  0.1379870221430705  0.2098059936978849  0.6037400157341080
  0.2316210246139412  0.3872580103859966  0.5710259945333692
  0.3289820171340567  0.2994829775912250  0.7688199887309055
  0.7311799626876501  0.2598349858655236  0.5694320117637396
  0.4117159883164314  0.2155629661343821  0.5637769984185508
  0.1047749672133769  0.7637719842609881  0.4715319956000976
  0.5914729784265534  0.5488769656514672  0.5896939871999031
  0.2808339802032710  0.8392669786820290  0.7929330038488790
  0.1255329971068875  0.8373599642221609  0.9190920024883843
  0.2512709768644382  0.6754569751961186  0.6543849902995243
  0.9419539363712212  0.8230629740233590  0.8635709998125612
  0.2488800231861973  0.2037880153905619  0.4284719951158091
  0.0563769866021782  0.2783070295808323  0.3829670020269781
  0.6760229607404080  0.3937359915993298  0.6328840051488834
  0.4169029954519823  0.8413299862865921  0.5445600140978597
  0.8037089514462392  0.7987120210336813  0.3889990063102607
  0.7069989477837243  0.1011609647652193  0.6190119925268079
  0.1559999964607110  0.9046290080036979  0.6423869980633381
  0.9337609375031757  0.6515609617511515  0.4288899990256871
  0.9232919554457887  0.4353989930389189  0.4886289936595306
  0.0650899656359280  0.0241899658447969  0.7038020014103796
  0.8823220054810396  0.2629939684275456  0.4520050069512788
  0.2360729774795534  0.0486919873400975  0.4836410102121330
  0.2619619709003898  0.0387580192759099  0.5834969980683417
  0.7294519814681254  0.3814830040599392  0.8989679933458392
  0.9475969510650166  0.6569680073690688  0.6171839857844220
  0.5441819942312000  0.9933010187207439  0.3932689828630904
  0.6400099868311471  0.9725209839473093  0.6885289797012011
  0.8982000066525421  0.9662359653522694  0.3778460156392355
  0.6525870014577279  0.9980290190356094  0.4864660165488680
  0.8852399673015791  0.0091999887590910  0.5217729979912054
  0.2562879610277687  0.9901260137414588  0.9211869853910477
  0.8604740084995849  0.9932249989401367  0.8467909846305949
