1-pos-1                                 
   1.00000000000000     
    11.0985002518000009    0.0000000000000000    0.0000000000000000
     0.0000000000000000   14.4173002242999999    0.0000000000000000
     0.0000000000000000    0.0000000000000000   26.7964000702000007
   Pt   H    C    O    K 
    96   168     6    81     4
Selective dynamics
Direct
  0.0000000000000000  0.0000000000000000  0.0018699899937573   F   F   F
  0.1249999521129013  0.1666699702868044  0.0018699899937573   F   F   F
  0.2499999943280642  0.0000000000000000  0.0018699899937573   F   F   F
  0.3749999464409584  0.1666699702868044  0.0018699899937573   F   F   F
  0.4999999886561284  0.0000000000000000  0.0018699899937573   F   F   F
  0.6249999407690225  0.1666699702868044  0.0018699899937573   F   F   F
  0.7499999829841855  0.0000000000000000  0.0018699899937573   F   F   F
  0.8749999350970867  0.1666699702868044  0.0018699899937573   F   F   F
  0.0000000000000000  0.3333300219343514  0.0018699899937573   F   F   F
  0.1249999521129013  0.4999999922211487  0.0018699899937573   F   F   F
  0.2499999943280642  0.3333300219343514  0.0018699899937573   F   F   F
  0.3749999464409584  0.4999999922211487  0.0018699899937573   F   F   F
  0.4999999886561284  0.3333300219343514  0.0018699899937573   F   F   F
  0.6249999407690225  0.4999999922211487  0.0018699899937573   F   F   F
  0.7499999829841855  0.3333300219343514  0.0018699899937573   F   F   F
  0.8749999350970867  0.4999999922211487  0.0018699899937573   F   F   F
  0.0000000000000000  0.6666700318690673  0.0018699899937573   F   F   F
  0.1249999521129013  0.8333299447943858  0.0018699899937573   F   F   F
  0.2499999943280642  0.6666700318690673  0.0018699899937573   F   F   F
  0.3749999464409584  0.8333299447943858  0.0018699899937573   F   F   F
  0.4999999886561284  0.6666700318690673  0.0018699899937573   F   F   F
  0.6249999407690225  0.8333299447943858  0.0018699899937573   F   F   F
  0.7499999829841855  0.6666700318690673  0.0018699899937573   F   F   F
  0.8749999350970867  0.8333299447943858  0.0018699899937573   F   F   F
  0.0000000000000000  0.2222199683821557  0.0864100026098313   F   F   F
  0.1249999521129013  0.0555599860957230  0.0864100026098313   F   F   F
  0.2499999943280642  0.2222199683821557  0.0864100026098313   F   F   F
  0.3749999464409584  0.0555599860957230  0.0864100026098313   F   F   F
  0.4999999886561284  0.2222199683821557  0.0864100026098313   F   F   F
  0.6249999407690225  0.0555599860957230  0.0864100026098313   F   F   F
  0.7499999829841855  0.2222199683821557  0.0864100026098313   F   F   F
  0.8749999350970867  0.0555599860957230  0.0864100026098313   F   F   F
  0.0000000000000000  0.5555599783168788  0.0864100026098313   F   F   F
  0.1249999521129013  0.3888900080300743  0.0864100026098313   F   F   F
  0.2499999943280642  0.5555599783168788  0.0864100026098313   F   F   F
  0.3749999464409584  0.3888900080300743  0.0864100026098313   F   F   F
  0.4999999886561284  0.5555599783168788  0.0864100026098313   F   F   F
  0.6249999407690225  0.3888900080300743  0.0864100026098313   F   F   F
  0.7499999829841855  0.5555599783168788  0.0864100026098313   F   F   F
  0.8749999350970867  0.3888900080300743  0.0864100026098313   F   F   F
  0.0000000000000000  0.8888900002512230  0.0864100026098313   F   F   F
  0.1249999521129013  0.7222199606033044  0.0864100026098313   F   F   F
  0.2499999943280642  0.8888900002512230  0.0864100026098313   F   F   F
  0.3749999464409584  0.7222199606033044  0.0864100026098313   F   F   F
  0.4999999886561284  0.8888900002512230  0.0864100026098313   F   F   F
  0.6249999407690225  0.7222199606033044  0.0864100026098313   F   F   F
  0.7499999829841855  0.8888900002512230  0.0864100026098313   F   F   F
  0.8749999350970867  0.7222199606033044  0.0864100026098313   F   F   F
  0.2515436031391543  0.4514371162965839  0.1731365880972822   T   T   T
  0.5002622935375473  0.4516446582137152  0.1722308941949969   T   T   T
  0.1251293154045206  0.6170038013794755  0.1715926443910619   T   T   T
  0.8754978923235022  0.2854711214328697  0.1719206497723012   T   T   T
  0.0006983455841316  0.4505127888957636  0.1720015938103431   T   T   T
  0.0006667992322723  0.1180581411737297  0.1715938259926201   T   T   T
  0.1259573573278098  0.9506487754100057  0.1715777698296283   T   T   T
  0.3757687114643650  0.9512786104794958  0.1713859166000634   T   T   T
  0.8757755612614361  0.6168004879672130  0.1718841241075793   T   T   T
  0.5003377295735929  0.1180607436961083  0.1716597860249022   T   T   T
  0.2495284287323377  0.1182796811135918  0.1717365785365018   T   T   T
  0.2505765918942101  0.7839713693345060  0.1712720523960146   T   T   T
  0.7506004371544749  0.1179699814195293  0.1714360082867440   T   T   T
  0.6261450649970324  0.2845084887948731  0.1717151293605612   T   T   T
  0.3749714527126971  0.6157823641717591  0.1733545563498009   T   T   T
  0.0005972935531223  0.7842863884998343  0.1715781792126111   T   T   T
  0.7505885738272174  0.7836454008777317  0.1713733901244425   T   T   T
  0.6250363402588681  0.9511768988889497  0.1712161036845381   T   T   T
  0.8752827823171153  0.9507584344627406  0.1716074251114656   T   T   T
  0.7490409367034897  0.4514513689117851  0.1734824690932923   T   T   T
  0.3749221266358390  0.2845754447380697  0.1714192497848794   T   T   T
  0.1249333055891759  0.2846361528572214  0.1719585582074522   T   T   T
  0.5000749120913337  0.7832973540557290  0.1707404175399390   T   T   T
  0.6257710130051229  0.6159171690762533  0.1729781068682915   T   T   T
  0.3775338508385194  0.5151844501015586  0.2658376794386083   T   T   T
  0.1254156961447044  0.5161636618803036  0.2583765693790090   T   T   T
  0.0011637219979579  0.0165255888281593  0.2583674773915111   T   T   T
  0.8758256962508346  0.1830900744023680  0.2580944903429200   T   T   T
  0.7516347400035628  0.3490263059260120  0.2598475745673559   T   T   T
  0.0005422343304833  0.6831378043294356  0.2583029416348104   T   T   T
  0.6266645955913995  0.8506552037521350  0.2576582051175089   T   T   T
  0.2506334894528377  0.6837317988450839  0.2579373938706424   T   T   T
  0.7514629657518889  0.6832626188512233  0.2584443027744259   T   T   T
  0.0010235097897204  0.3496641241016549  0.2601302120706754   T   T   T
  0.1259045997669692  0.8499267146725454  0.2584986333090461   T   T   T
  0.6262434088888824  0.1828180332376892  0.2591785653050820   T   T   T
  0.2509829150594289  0.0166791000408944  0.2586206322884310   T   T   T
  0.3755292459979336  0.1825947464029988  0.2590958282429915   T   T   T
  0.8755259587383857  0.5161209591098134  0.2593760875076208   T   T   T
  0.5012321967034051  0.0171432513118378  0.2587611940820075   T   T   T
  0.3751998449049995  0.8505859343486060  0.2581569554759933   T   T   T
  0.5010719506461562  0.3468851625196089  0.2565573034883767   T   T   T
  0.1260538381428730  0.1829002295746837  0.2597176188933356   T   T   T
  0.7512790141212271  0.0168227106096566  0.2584250365754541   T   T   T
  0.8764430922558033  0.8502852031104993  0.2588598247487338   T   T   T
  0.2498982519746409  0.3487243027529004  0.2585910853203348   T   T   T
  0.6244100099573600  0.5145760678829044  0.2657337658242008   T   T   T
  0.5015347577226211  0.6852211077809787  0.2567527973807987   T   T   T
  0.7847598406646952  0.7276059842330737  0.3580377188002019   T   T   T
  0.8976386276406250  0.7621399714449774  0.3871086720708553   T   T   T
  0.2381527522270654  0.1201998433978832  0.4323620818223851   T   T   T
  0.1454461320862108  0.1079432997278803  0.4790501126734584   T   T   T
  0.7283510981555429  0.7864997919073934  0.7454878585061644   T   T   T
  0.5888268091025831  0.7847786060175322  0.7319065110420307   T   T   T
  0.6932712904225320  0.5005101740238588  0.8509969308466219   T   T   T
  0.7120202159129925  0.5002193023120267  0.9105782663655155   T   T   T
  0.3349828330171812  0.9180272963292886  0.7918637801510043   T   T   T
  0.2856696453920240  0.8668319594732338  0.8387958063983131   T   T   T
  0.1986871451046132  0.5421460545042858  0.9103171092631414   T   T   T
  0.0563086310573082  0.5350911428473202  0.9070096723872058   T   T   T
  0.0982162719533560  0.7021394132595651  0.7921068038603613   T   T   T
  0.0755201287814046  0.7918193322301202  0.7588381358844560   T   T   T
  0.4146461797023964  0.2058568293335607  0.3871158038495243   T   T   T
  0.4610214107100346  0.2741872149590260  0.3471622052608521   T   T   T
  0.5065346187360164  0.3159688458848420  0.8437391997731858   T   T   T
  0.6410074377856696  0.2788573150813803  0.8301893918667200   T   T   T
  0.5330168937747191  0.2151183792543879  0.7796255655920078   T   T   T
  0.5807776333114447  0.1488049529666058  0.7381298087580360   T   T   T
  0.8972429579149761  0.3394651431633144  0.9249616053381381   T   T   T
  0.8434183655521752  0.4006564964188016  0.8816860235575769   T   T   T
  0.4909339763230475  0.5115473272210818  0.6478870976929073   T   T   T
  0.3559682631994620  0.5506016604551147  0.6479882523918846   T   T   T
  0.5407143256630124  0.3200814158852743  0.4886237195856251   T   T   T
  0.5321867063645465  0.3475043771757558  0.4324550085906255   T   T   T
  0.4290892588748881  0.9078035775766388  0.3379587288322551   T   T   T
  0.5194464242642515  0.9083992565419073  0.3820291719289583   T   T   T
  0.4531117985520947  0.7471307505502218  0.5484180884062363   T   T   T
  0.4600779096439733  0.8106335790676306  0.5956317153269579   T   T   T
  0.0244328960360512  0.1630878811528470  0.3387021091854515   T   T   T
  0.9189345187179544  0.1941790966530464  0.3738137379128451   T   T   T
  0.6574803720589003  0.5738759879432361  0.4978844380118486   T   T   T
  0.5818147047220891  0.4780246410260369  0.4926145770670396   T   T   T
  0.0039207360768285  0.2577832909777454  0.7450883435800673   T   T   T
  0.1356571052602584  0.2790241241420597  0.7283529140762961   T   T   T
  0.9461893131368948  0.4963122214388729  0.7744835463382941   T   T   T
  0.0369166105502151  0.4119924255750865  0.7669064583051735   T   T   T
  0.7326803660494987  0.8535594588696869  0.3852954483456242   T   T   T
  0.6816271717711682  0.9033589022858872  0.3375194698264949   T   T   T
  0.3654675756901750  0.2509941758803533  0.8829952853189191   T   T   T
  0.3988895691390838  0.3383884629719192  0.9153684936930060   T   T   T
  0.0491826411964959  0.3355457513920870  0.8706054352376006   T   T   T
  0.1935378007364186  0.3390271843032165  0.8760517264505667   T   T   T
  0.4740783656189004  0.8963678657257312  0.8575562845774316   T   T   T
  0.5161477743689453  0.9017238666924834  0.9146996187811962   T   T   T
  0.0279320465280074  0.8703291163192172  0.4831830139815770   T   T   T
  0.9391935458430332  0.9335815896441220  0.4529136766931878   T   T   T
  0.0178304993852540  0.5682992190548999  0.3372056550773906   T   T   T
  0.1213583484918898  0.5537885901622621  0.3759807227349149   T   T   T
  0.2162113767206290  0.6007732835942245  0.4425979411812368   T   T   T
  0.2675182556075205  0.6324737191653301  0.4947039722622468   T   T   T
  0.8083835538939987  0.1266826234945533  0.7354703073917346   T   T   T
  0.7655080071293709  0.1635111357022366  0.6828333535619182   T   T   T
  0.9389824248071110  0.6424892453216478  0.9151577321847205   T   T   T
  0.8785217486937458  0.5682607143170081  0.8804932165489184   T   T   T
  0.7047895453898829  0.5178657582826955  0.6265237765032897   T   T   T
  0.6221271558991222  0.5148814144391817  0.5765070814620518   T   T   T
  0.4127845685069453  0.8968637773146897  0.5298766926651812   T   T   T
  0.4223655294893622  0.9864450219591289  0.4951161505802040   T   T   T
  0.2986176388605305  0.6931141681018007  0.6358223679203531   T   T   T
  0.1870848766037461  0.6325017514905104  0.6158380131487859   T   T   T
  0.3780418292161065  0.9169341224655395  0.6609679625365540   T   T   T
  0.4838109452278026  0.9891814098082763  0.6657285807002888   T   T   T
  0.8006492707374585  0.0887252058267010  0.5559937749443442   T   T   T
  0.9250388306089961  0.1250308827644207  0.5401220261327523   T   T   T
  0.3098056605235244  0.0983882866281963  0.3429692276284055   T   T   T
  0.3836535157572891  0.0343898643657478  0.3792198709969970   T   T   T
  0.8140428016150238  0.6208695668169409  0.7665544231770270   T   T   T
  0.7391485187371482  0.5268871040577924  0.7649576455970151   T   T   T
  0.8320449696964639  0.5508738053397632  0.6912165214835091   T   T   T
  0.8836231660341510  0.4823249274719125  0.6493567817802695   T   T   T
  0.2178360032931599  0.3054818525814724  0.5279991294989071   T   T   T
  0.1714263493550746  0.2558717809943667  0.4819522261731579   T   T   T
  0.7135483625720975  0.7564422334363859  0.6657841344693924   T   T   T
  0.7774067946221768  0.6722075418065179  0.6381666073766437   T   T   T
  0.5410307565566093  0.5192936134739694  0.7904406105459286   T   T   T
  0.5984546209536200  0.4190418063114308  0.8003435942459581   T   T   T
  0.5285479261105467  0.1223433963494200  0.4984723910874642   T   T   T
  0.5539100738832354  0.0780873976010118  0.4454279648281169   T   T   T
  0.1143725390975737  0.0485481822512034  0.5527720048459392   T   T   T
  0.0174391626579358  0.9991429607328134  0.5159986337058003   T   T   T
  0.6652573375349867  0.0246598215704058  0.3824096107742613   T   T   T
  0.5890625018117180  0.0916574850967454  0.3493101801199781   T   T   T
  0.3717964593898813  0.6266821580072198  0.8849057653978978   T   T   T
  0.2624487569853606  0.6819344833923198  0.9094858972940997   T   T   T
  0.5922447257024220  0.0219958816240588  0.8792200337581226   T   T   T
  0.6005715362830112  0.0985126357238802  0.9206370949441706   T   T   T
  0.2084183496654801  0.6110618657102190  0.8293186270983948   T   T   T
  0.1242003185380052  0.5490847664488600  0.7924409645367977   T   T   T
  0.8594764147806181  0.9533957595787371  0.6018143358166245   T   T   T
  0.7283886928189848  0.9756785532598140  0.6208933759267748   T   T   T
  0.3439724048315416  0.2990384170802673  0.6929349084067659   T   T   T
  0.3738735687025547  0.3924434294063687  0.6627073572158715   T   T   T
  0.3247886537835006  0.5754536322562166  0.7719633419744563   T   T   T
  0.4114314955507796  0.5463093207624834  0.7265092221420293   T   T   T
  0.2182720119098260  0.0275759735039787  0.7662949023821651   T   T   T
  0.3098372274318602  0.0034959502448860  0.7193332918317632   T   T   T
  0.5713139241260121  0.6609655856720522  0.8816989085043289   T   T   T
  0.5264486549930558  0.5869631149605379  0.9204520122491356   T   T   T
  0.1174935047330300  0.2197236607902442  0.9001991322373463   T   T   T
  0.0368599028340322  0.1279014148357130  0.9144066981986416   T   T   T
  0.8884091995335933  0.3239418830905193  0.6381254801884757   T   T   T
  0.9990960609202969  0.3575004020900985  0.6689798457397288   T   T   T
  0.8744066569098792  0.1797171503675480  0.8039809655502245   T   T   T
 -0.0021950468318949  0.1272521629005107  0.7923857620663849   T   T   T
  0.9768439169847249  0.3892996064979986  0.5727923024416357   T   T   T
  0.0479011560088910  0.3660607330350485  0.5223049205124809   T   T   T
  0.2936372436000850  0.2715705574597366  0.7779528207400399   T   T   T
  0.3736525567302146  0.2020674620831772  0.7470457565845805   T   T   T
  0.8193617108009240  0.2009782863626612  0.6011870198653945   T   T   T
  0.7158450332727302  0.2609396499436171  0.6280452792252937   T   T   T
  0.3133146419841188  0.2692298334046455  0.6067883070733816   T   T   T
  0.2787321742936107  0.1740393637923430  0.5779590474269267   T   T   T
  0.9843279577284474  0.5106229486857126  0.5215627168791301   T   T   T
  0.0615033627123256  0.5953712416633922  0.4974737582862730   T   T   T
  0.4599751310272434  0.5977880004904819  0.5258400555390703   T   T   T
  0.3530616426508279  0.6293266234654450  0.5647444272933761   T   T   T
  0.4147714253108874  0.7873304882388447  0.7776057302624918   T   T   T
  0.4384719024797279  0.6834684043915753  0.7557253873848123   T   T   T
  0.1145039977852333  0.8708906038254228  0.8956145670524327   T   T   T
  0.0959043877683834  0.8346667883118974  0.8390836559551856   T   T   T
  0.2521113213712270  0.8100692165447163  0.6770086329636116   T   T   T
  0.3795097128337789  0.7768227445627756  0.6965632662188755   T   T   T
  0.7765854629987922  0.7376185945238529  0.8232893199973551   T   T   T
  0.9025437591540247  0.7456029412037071  0.7932295952422478   T   T   T
  0.4259955876050672  0.2368609370876144  0.5410076892414279   T   T   T
  0.5540070220852346  0.2578924788058096  0.5597938615819650   T   T   T
  0.0382521511999598  0.7647411725574252  0.3368866248128312   T   T   T
  0.0471218749522997  0.6896949837432779  0.3783485375698834   T   T   T
  0.6061115231376700  0.3810208424227904  0.6144941068441424   T   T   T
  0.5143643476888687  0.3073573441047042  0.6370762631375594   T   T   T
  0.2464136832728880  0.8660518870177696  0.4885386676869427   T   T   T
  0.1902743834547635  0.7663016678311445  0.4727207186093841   T   T   T
  0.9034254206824595  0.9710082506905825  0.3644448471627774   T   T   T
  0.9710039796500785  0.0567184428989928  0.3875751948344051   T   T   T
  0.6552375720108116  0.9174475318187620  0.6934302967692888   T   T   T
  0.6804380686697744  0.0276527578115107  0.6915087085345208   T   T   T
  0.2021093444067196  0.0961762227151914  0.8388848234777342   T   T   T
  0.1277587238157482  0.0041238884066200  0.8366632311414012   T   T   T
  0.3248082103046999  0.1135139462240505  0.9103955200210102   T   T   T
  0.4371950311606567  0.1139424261841343  0.8749065504022676   T   T   T
  0.9793122915337416  0.6139042067129344  0.6285306538304888   T   T   T
  0.0166341248216383  0.6232629832818021  0.5721273601965075   T   T   T
  0.8838693915286914  0.8022657442983298  0.6349522018369718   T   T   T
  0.0067807611602625  0.7771030338732965  0.6137143544296582   T   T   T
  0.7840655701960874  0.6756853955648108  0.4475638250015761   T   T   T
  0.8532415348146392  0.6233929063081328  0.4913092515892155   T   T   T
  0.9627528956171281  0.4657743429673601  0.3902695276493629   T   T   T
  0.9069955453322953  0.3851573516372741  0.3599553108442496   T   T   T
  0.7171881143641459  0.1625574492130774  0.8630218644079127   T   T   T
  0.8072801810456154  0.2530991719851618  0.8683510315955401   T   T   T
  0.7611645730584430  0.2570340055080600  0.3438137679148600   T   T   T
  0.7216768856251958  0.1759451725636045  0.3792216234087141   T   T   T
  0.3019349595943039  0.0167033549101924  0.5552875382196069   T   T   T
  0.3044787860587729  0.0333844252206631  0.6130604517452130   T   T   T
  0.1531711091878098  0.9050343873570860  0.7161192217427684   T   T   T
  0.0574041902445060  0.8522990755225758  0.6780627067256328   T   T   T
  0.7206861580278843  0.7459856523451259  0.9103445787839594   T   T   T
  0.6365644833592450  0.8088440225950740  0.8773687918071600   T   T   T
  0.4061585323095384  0.4206565329925356  0.3469130032655598   T   T   T
  0.6139337872511331  0.4368680954898667  0.3503108032985049   T   T   T
  0.7121706629728244  0.5936952127365632  0.3663217796060361   T   T   T
  0.3510247304261158  0.7016316285377032  0.3661653149608424   T   T   T
  0.5775963207972454  0.7219872493889644  0.3974066665346322   T   T   T
  0.3933839432203204  0.6596819586017008  0.4252323123171969   T   T   T
  0.5489319537885478  0.6984045291214838  0.3342977364000307   T   T   T
  0.6152571163244865  0.5529845641461189  0.4134498839302282   T   T   T
  0.4358542323927639  0.4922892065855547  0.3413698543570751   T   T   T
  0.5704001010486134  0.5033262976030347  0.3413773157846435   T   T   T
  0.3634050706969484  0.5553970897344235  0.3718714220642355   T   T   T
  0.6170809421508975  0.5802007132165888  0.3748711022951106   T   T   T
  0.4094690862998017  0.6505635532984386  0.3850269898222921   T   T   T
  0.5416466511580611  0.6680880670023328  0.3726008642670959   T   T   T
  0.8072602519923723  0.7531659480832200  0.3908562151561970   T   T   T
  0.1987952151410838  0.1513306171593360  0.4606642431506590   T   T   T
  0.6693261700373848  0.8058581028317466  0.7191489491105842   T   T   T
  0.7550819788367606  0.4965021859307362  0.8784964473629078   T   T   T
  0.3604170756381790  0.8733657132538010  0.8184742717629484   T   T   T
  0.1304579929918658  0.5000194425844433  0.9199371162787433   T   T   T
  0.0534541273197428  0.7628546315262126  0.7914957841856719   T   T   T
  0.4344896084082846  0.2721944371061506  0.3823112381426248   T   T   T
  0.5679383409659662  0.3108463654427918  0.8165448066818043   T   T   T
  0.5083924090470019  0.1618038329605373  0.7583005164043094   T   T   T
  0.8924714298892934  0.3433319903169845  0.8879653501919383   T   T   T
  0.4122770491809173  0.5070938457590238  0.6655750611768930   T   T   T
  0.5714164918601239  0.3669827042738999  0.4637047775259172   T   T   T
  0.4327180527305106  0.9186397053779507  0.3747033989123770   T   T   T
  0.4868747761922730  0.8073411535572177  0.5609125997167627   T   T   T
  0.0029207208661446  0.1680526689335795  0.3746187968485142   T   T   T
  0.5919260580286316  0.5354362667787316  0.5130697121728801   T   T   T
  0.0542154310309137  0.3059064309556107  0.7282300641709717   T   T   T
  0.0220625999328807  0.4683978931213361  0.7869974191895074   T   T   T
  0.6806654534869824  0.9071939858098306  0.3747365111243436   T   T   T
  0.3785251816783115  0.3197469505901200  0.8809375596524199   T   T   T
  0.1250445216963285  0.2996351815964993  0.8666391729897334   T   T   T
  0.5462820185873551  0.9042172542168910  0.8800243164750857   T   T   T
  0.9502144508832373  0.9046312773077384  0.4862550101547761   T   T   T
  0.0346720755769564  0.5710976901491800  0.3737607194915193   T   T   T
  0.1947656185172845  0.6373096119165460  0.4727394716749016   T   T   T
  0.7391437665532756  0.1253117966326157  0.7120972131124074   T   T   T
  0.9550056409858785  0.6036585643414624  0.8855726281869672   T   T   T
  0.6255643671639892  0.4974863453213016  0.6125015510640103   T   T   T
  0.3630924900470721  0.9431742324787354  0.5114284388240529   T   T   T
  0.2774302922122992  0.6333079809159093  0.6187544692705064   T   T   T
  0.3942217483205637  0.9846328437630362  0.6623436517637223   T   T   T
  0.8405459892358772  0.1469417748143119  0.5451716382197015   T   T   T
  0.3310570933103789  0.0908377365073465  0.3787408627793866   T   T   T
  0.8140489971756102  0.5569945335826434  0.7517514250326359   T   T   T
  0.8448777203016236  0.5451443928682324  0.6538587342028380   T   T   T
  0.1695603363117849  0.3190353007719829  0.4975272229290770   T   T   T
  0.7523894357220788  0.7368258417141007  0.6334874292310622   T   T   T
  0.6184817970628307  0.4868291179391763  0.7966664933621368   T   T   T
  0.5312277610354681  0.0628617324585065  0.4799827814414219   T   T   T
  0.0537286564784424  0.0598027071927611  0.5262677240129165   T   T   T
  0.6274773542108121  0.0874910486490803  0.3824938449277610   T   T   T
  0.2802650029634401  0.6328242916703343  0.8851217555913763   T   T   T
  0.5954400708262817  0.0906902564667875  0.8838371308495473   T   T   T
  0.1830574542469612  0.6028503323475569  0.7940302360833469   T   T   T
  0.7809098218418373  0.9758384628292984  0.5903835102858428   T   T   T
  0.3703267852516255  0.3233013910291819  0.6598502977533307   T   T   T
  0.4112273153547277  0.5728346991694421  0.7609517065049785   T   T   T
  0.2556413533358363  0.9781650842601273  0.7454608095577522   T   T   T
  0.5131500839491149  0.6087652022153460  0.8858990982467020   T   T   T
  0.1153597850878320  0.1565830528221092  0.9202699625402272   T   T   T
  0.9475450313541633  0.3769849207003427  0.6405438890420312   T   T   T
  0.9316513195917331  0.1624942823393811  0.7766342776674547   T   T   T
  0.9740859349689490  0.3980932840757544  0.5360854456457524   T   T   T
  0.2966178917688901  0.2399972002231527  0.7458009371427559   T   T   T
  0.7981378575070919  0.2332897089991284  0.6332179115634262   T   T   T
  0.2962080977682732  0.2416293918539530  0.5734314809074897   T   T   T
  0.9851459933705718  0.5797601679413370  0.5154410929735765   T   T   T
  0.3923557382940013  0.6421975395024022  0.5316203678292255   T   T   T
  0.4504776297390580  0.7521069195941270  0.7491992066109964   T   T   T
  0.1360628295216905  0.8826624596527421  0.8607218457633178   T   T   T
  0.3356824939580252  0.7945512342172345  0.6648421661170990   T   T   T
  0.8142658218696279  0.7318239628140005  0.7897417873602488   T   T   T
  0.5120830640948846  0.2357007283652292  0.5290964063601395   T   T   T
  0.0396777863492666  0.7583976963319978  0.3739714832431980   T   T   T
  0.5890972881609219  0.3128250701191919  0.6163406064343150   T   T   T
  0.1761397094128410  0.8339953440571520  0.4734725253193081   T   T   T
  0.9547689053380864  0.9885638161203590  0.3925582449107591   T   T   T
  0.6406734916943447  0.9746170318490894  0.6733199991191146   T   T   T
  0.1381155507456409  0.0647651613182683  0.8196795231172516   T   T   T
  0.3504466208654987  0.1320603748797901  0.8766385335361778   T   T   T
  0.0371002077860208  0.6466700710585901  0.6065278367039981   T   T   T
  0.9633056039155707  0.8317100636795975  0.6270456745279651   T   T   T
  0.7735489810169154  0.6508503150064977  0.4816848585171403   T   T   T
  0.9370658330924463  0.4000038828374450  0.3934512679602380   T   T   T
  0.7628819609877963  0.2112997327749616  0.8448361554175822   T   T   T
  0.7751485671371230  0.2322090005723515  0.3776946737838655   T   T   T
  0.2623495470535872  0.0541441678944679  0.5822694742997490   T   T   T
  0.1214305998210757  0.8442503505344293  0.7039838669272868   T   T   T
  0.6830980209650617  0.7490217195258914  0.8770706934572068   T   T   T
  0.2651837984519668  0.5279601721543034  0.3909370396322061   T   T   T
  0.7402517274551604  0.8199961310309442  0.5350415766565955   T   T   T
  0.8144248915715013  0.3039813106788372  0.4712277440743502   T   T   T
  0.1763948050130152  0.3222227159573849  0.3870140069633524   T   T   T
  0.1824607252119624  0.9120814125289539  0.3802094614120602   T   T   T
 
  0.00000000E+00  0.00000000E+00  0.00000000E+00
  0.00000000E+00  0.00000000E+00  0.00000000E+00
  0.00000000E+00  0.00000000E+00  0.00000000E+00
  0.00000000E+00  0.00000000E+00  0.00000000E+00
  0.00000000E+00  0.00000000E+00  0.00000000E+00
  0.00000000E+00  0.00000000E+00  0.00000000E+00
  0.00000000E+00  0.00000000E+00  0.00000000E+00
  0.00000000E+00  0.00000000E+00  0.00000000E+00
  0.00000000E+00  0.00000000E+00  0.00000000E+00
  0.00000000E+00  0.00000000E+00  0.00000000E+00
  0.00000000E+00  0.00000000E+00  0.00000000E+00
  0.00000000E+00  0.00000000E+00  0.00000000E+00
  0.00000000E+00  0.00000000E+00  0.00000000E+00
  0.00000000E+00  0.00000000E+00  0.00000000E+00
  0.00000000E+00  0.00000000E+00  0.00000000E+00
  0.00000000E+00  0.00000000E+00  0.00000000E+00
  0.00000000E+00  0.00000000E+00  0.00000000E+00
  0.00000000E+00  0.00000000E+00  0.00000000E+00
  0.00000000E+00  0.00000000E+00  0.00000000E+00
  0.00000000E+00  0.00000000E+00  0.00000000E+00
  0.00000000E+00  0.00000000E+00  0.00000000E+00
  0.00000000E+00  0.00000000E+00  0.00000000E+00
  0.00000000E+00  0.00000000E+00  0.00000000E+00
  0.00000000E+00  0.00000000E+00  0.00000000E+00
  0.00000000E+00  0.00000000E+00  0.00000000E+00
  0.00000000E+00  0.00000000E+00  0.00000000E+00
  0.00000000E+00  0.00000000E+00  0.00000000E+00
  0.00000000E+00  0.00000000E+00  0.00000000E+00
  0.00000000E+00  0.00000000E+00  0.00000000E+00
  0.00000000E+00  0.00000000E+00  0.00000000E+00
  0.00000000E+00  0.00000000E+00  0.00000000E+00
  0.00000000E+00  0.00000000E+00  0.00000000E+00
  0.00000000E+00  0.00000000E+00  0.00000000E+00
  0.00000000E+00  0.00000000E+00  0.00000000E+00
  0.00000000E+00  0.00000000E+00  0.00000000E+00
  0.00000000E+00  0.00000000E+00  0.00000000E+00
  0.00000000E+00  0.00000000E+00  0.00000000E+00
  0.00000000E+00  0.00000000E+00  0.00000000E+00
  0.00000000E+00  0.00000000E+00  0.00000000E+00
  0.00000000E+00  0.00000000E+00  0.00000000E+00
  0.00000000E+00  0.00000000E+00  0.00000000E+00
  0.00000000E+00  0.00000000E+00  0.00000000E+00
  0.00000000E+00  0.00000000E+00  0.00000000E+00
  0.00000000E+00  0.00000000E+00  0.00000000E+00
  0.00000000E+00  0.00000000E+00  0.00000000E+00
  0.00000000E+00  0.00000000E+00  0.00000000E+00
  0.00000000E+00  0.00000000E+00  0.00000000E+00
  0.00000000E+00  0.00000000E+00  0.00000000E+00
  0.00000000E+00  0.00000000E+00  0.00000000E+00
  0.00000000E+00  0.00000000E+00  0.00000000E+00
  0.00000000E+00  0.00000000E+00  0.00000000E+00
  0.00000000E+00  0.00000000E+00  0.00000000E+00
  0.00000000E+00  0.00000000E+00  0.00000000E+00
  0.00000000E+00  0.00000000E+00  0.00000000E+00
  0.00000000E+00  0.00000000E+00  0.00000000E+00
  0.00000000E+00  0.00000000E+00  0.00000000E+00
  0.00000000E+00  0.00000000E+00  0.00000000E+00
  0.00000000E+00  0.00000000E+00  0.00000000E+00
  0.00000000E+00  0.00000000E+00  0.00000000E+00
  0.00000000E+00  0.00000000E+00  0.00000000E+00
  0.00000000E+00  0.00000000E+00  0.00000000E+00
  0.00000000E+00  0.00000000E+00  0.00000000E+00
  0.00000000E+00  0.00000000E+00  0.00000000E+00
  0.00000000E+00  0.00000000E+00  0.00000000E+00
  0.00000000E+00  0.00000000E+00  0.00000000E+00
  0.00000000E+00  0.00000000E+00  0.00000000E+00
  0.00000000E+00  0.00000000E+00  0.00000000E+00
  0.00000000E+00  0.00000000E+00  0.00000000E+00
  0.00000000E+00  0.00000000E+00  0.00000000E+00
  0.00000000E+00  0.00000000E+00  0.00000000E+00
  0.00000000E+00  0.00000000E+00  0.00000000E+00
  0.00000000E+00  0.00000000E+00  0.00000000E+00
  0.00000000E+00  0.00000000E+00  0.00000000E+00
  0.00000000E+00  0.00000000E+00  0.00000000E+00
  0.00000000E+00  0.00000000E+00  0.00000000E+00
  0.00000000E+00  0.00000000E+00  0.00000000E+00