1-pos-1                                 
   1.00000000000000     
    11.0985002518000009    0.0000000000000000    0.0000000000000000
     0.0000000000000000   14.4173002242999999    0.0000000000000000
     0.0000000000000000    0.0000000000000000   26.7964000702000007
   Pt   H    C    O 
    96   170     6    81
Selective dynamics
Direct
  0.0000000000000000  0.0000000000000000  0.0018699899937573   F   F   F
  0.1249999521129013  0.1666699702868044  0.0018699899937573   F   F   F
  0.2499999943280642  0.0000000000000000  0.0018699899937573   F   F   F
  0.3749999464409584  0.1666699702868044  0.0018699899937573   F   F   F
  0.4999999886561284  0.0000000000000000  0.0018699899937573   F   F   F
  0.6250000308712913  0.1666699702868044  0.0018699899937573   F   F   F
  0.7499999829841855  0.0000000000000000  0.0018699899937573   F   F   F
  0.8749999350970867  0.1666699702868044  0.0018699899937573   F   F   F
  0.0000000000000000  0.3333300219343514  0.0018699899937573   F   F   F
  0.1249999521129013  0.4999999922211487  0.0018699899937573   F   F   F
  0.2499999943280642  0.3333300219343514  0.0018699899937573   F   F   F
  0.3749999464409584  0.4999999922211487  0.0018699899937573   F   F   F
  0.4999999886561284  0.3333300219343514  0.0018699899937573   F   F   F
  0.6250000308712913  0.4999999922211487  0.0018699899937573   F   F   F
  0.7499999829841855  0.3333300219343514  0.0018699899937573   F   F   F
  0.8749999350970867  0.4999999922211487  0.0018699899937573   F   F   F
  0.0000000000000000  0.6666699625079531  0.0018699899937573   F   F   F
  0.1249999521129013  0.8333300141555000  0.0018699899937573   F   F   F
  0.2499999943280642  0.6666699625079531  0.0018699899937573   F   F   F
  0.3749999464409584  0.8333300141555000  0.0018699899937573   F   F   F
  0.4999999886561284  0.6666699625079531  0.0018699899937573   F   F   F
  0.6250000308712913  0.8333300141555000  0.0018699899937573   F   F   F
  0.7499999829841855  0.6666699625079531  0.0018699899937573   F   F   F
  0.8749999350970867  0.8333300141555000  0.0018699899937573   F   F   F
  0.0000000000000000  0.2222199683821557  0.0864100026098313   F   F   F
  0.1249999521129013  0.0555599860957230  0.0864100026098313   F   F   F
  0.2499999943280642  0.2222199683821557  0.0864100026098313   F   F   F
  0.3749999464409584  0.0555599860957230  0.0864100026098313   F   F   F
  0.4999999886561284  0.2222199683821557  0.0864100026098313   F   F   F
  0.6250000308712913  0.0555599860957230  0.0864100026098313   F   F   F
  0.7499999829841855  0.2222199683821557  0.0864100026098313   F   F   F
  0.8749999350970867  0.0555599860957230  0.0864100026098313   F   F   F
  0.0000000000000000  0.5555599783168788  0.0864100026098313   F   F   F
  0.1249999521129013  0.3888900080300743  0.0864100026098313   F   F   F
  0.2499999943280642  0.5555599783168788  0.0864100026098313   F   F   F
  0.3749999464409584  0.3888900080300743  0.0864100026098313   F   F   F
  0.4999999886561284  0.5555599783168788  0.0864100026098313   F   F   F
  0.6250000308712913  0.3888900080300743  0.0864100026098313   F   F   F
  0.7499999829841855  0.5555599783168788  0.0864100026098313   F   F   F
  0.8749999350970867  0.3888900080300743  0.0864100026098313   F   F   F
  0.0000000000000000  0.8888900002512230  0.0864100026098313   F   F   F
  0.1249999521129013  0.7222199606033044  0.0864100026098313   F   F   F
  0.2499999943280642  0.8888900002512230  0.0864100026098313   F   F   F
  0.3749999464409584  0.7222199606033044  0.0864100026098313   F   F   F
  0.4999999886561284  0.8888900002512230  0.0864100026098313   F   F   F
  0.6250000308712913  0.7222199606033044  0.0864100026098313   F   F   F
  0.7499999829841855  0.8888900002512230  0.0864100026098313   F   F   F
  0.8749999350970867  0.7222199606033044  0.0864100026098313   F   F   F
  0.2493241589302896  0.4508252058111348  0.1716072610992353   T   T   T
  0.4979130040486852  0.4510179949253550  0.1718758854960793   T   T   T
  0.1244037056814618  0.6175154875257901  0.1708262429171355   T   T   T
  0.8743559806783590  0.2822731310698376  0.1705856869807124   T   T   T
  0.9984475578729088  0.4496476148636361  0.1710271290027206   T   T   T
 -0.0005791267811411  0.1144849222210879  0.1722061366522165   T   T   T
  0.1241462100597875  0.9504266371648715  0.1731191541196455   T   T   T
  0.3732621365993096  0.9499541089057555  0.1716107034483508   T   T   T
  0.8738493622035474  0.6167825209981316  0.1710854492317954   T   T   T
  0.4984962765008930  0.1163514694650689  0.1716272101604768   T   T   T
  0.2489198538303828  0.1160238977852208  0.1717221188648838   T   T   T
  0.2491922930523659  0.7834277493534449  0.1714509207219410   T   T   T
  0.7494445724373756  0.1142007940818883  0.1722451051507266   T   T   T
  0.6243256208837223  0.2823377818438367  0.1709422773680122   T   T   T
  0.3732478526379180  0.6163537720505965  0.1733376825773527   T   T   T
 -0.0006743263630690  0.7841112705050126  0.1721739778936599   T   T   T
  0.7497815386903739  0.7835448950919884  0.1724193508234464   T   T   T
  0.6239489244334476  0.9496349949382352  0.1723189230908713   T   T   T
  0.8744330972451381  0.9483616494672057  0.1754634720948569   T   T   T
  0.7484282770684101  0.4496294691272185  0.1710371966094266   T   T   T
  0.3729295112148280  0.2836369607443244  0.1718605591544548   T   T   T
  0.1249768067739848  0.2837039278579929  0.1721638513580136   T   T   T
  0.4984316060419577  0.7829180139001684  0.1716454366074869   T   T   T
  0.6234758659644616  0.6164293435168690  0.1715111785059467   T   T   T
  0.3728998740115335  0.5124300909149625  0.2650850974066838   T   T   T
  0.1201951802545199  0.5161113803956674  0.2561174797740217   T   T   T
  0.0009016881173029  0.0178405661669827  0.2626357827219908   T   T   T
  0.8727127267183359  0.1843436300800231  0.2571295677684468   T   T   T
  0.7488454380448549  0.3494530280121790  0.2577291877998689   T   T   T
  0.9987246931456264  0.6801726994925716  0.2577957550157412   T   T   T
  0.6204982630415147  0.8465275353722158  0.2582035678252316   T   T   T
  0.2491583717461706  0.6809813878461209  0.2586056013974799   T   T   T
  0.7472188156354207  0.6802593994227140  0.2583620123042022   T   T   T
  0.9963227387255794  0.3488853454935055  0.2579408073505147   T   T   T
  0.1265466788680370  0.8476389852079688  0.2586075919055562   T   T   T
  0.6225699743763846  0.1823478919788427  0.2583108375979237   T   T   T
  0.2502187683702891  0.0154805385135806  0.2598839244807274   T   T   T
  0.3744258977825036  0.1808200002907795  0.2583942646609600   T   T   T
  0.8723548761452088  0.5152580983172956  0.2579583814260371   T   T   T
  0.4962661788899749  0.0148572702061280  0.2586948015288250   T   T   T
  0.3730155365120718  0.8479735531238876  0.2588676341466311   T   T   T
  0.5015200268576638  0.3474515048989714  0.2561876539352737   T   T   T
  0.1244551692222924  0.1824661196297012  0.2580410426830402   T   T   T
  0.7454657770849596  0.0150383365142312  0.2607285626069794   T   T   T
  0.8751673559738673  0.8461310653112686  0.2618910194684569   T   T   T
  0.2480160515308252  0.3477042106009554  0.2591695874146052   T   T   T
  0.6243899910794382  0.5152516578344437  0.2586169709229157   T   T   T
  0.4970813255516628  0.6804825973039227  0.2592336438768600   T   T   T
  0.6714436067652433  0.7062225160081630  0.3482098085833393   T   T   T
  0.7419763618781983  0.6811296439352110  0.3988731390773094   T   T   T
  0.2057263581374016  0.9312622388170003  0.3957086539259545   T   T   T
  0.1242378836132008  0.9781324902745988  0.4382636060646071   T   T   T
  0.8020691129068386  0.7924226347002493  0.7572506176693149   T   T   T
  0.6667041324346803  0.8258585701461966  0.7657649792385256   T   T   T
  0.6185626526737623  0.5239754276975434  0.8422089191123145   T   T   T
  0.6385278205640733  0.5387445731403938  0.9015590754166167   T   T   T
  0.4368761560910046  0.0498079511196100  0.7762358056053887   T   T   T
  0.3149340824887064  0.0089729951406605  0.7976470148518288   T   T   T
  0.1666245771832451  0.5450607421526998  0.9000197899896663   T   T   T
  0.0832519380767374  0.4674213251051975  0.8734312551041502   T   T   T
  0.1953549065164516  0.6825958426354318  0.7798838184600965   T   T   T
  0.1833311006164358  0.7756931587895676  0.7479530023601034   T   T   T
  0.6279456492618887  0.2211938464798917  0.4086753444339195   T   T   T
  0.4942718610256445  0.1787529323081885  0.4124649962631042   T   T   T
  0.7143376675154698  0.2872105875507713  0.8386073021102183   T   T   T
  0.8299835980509770  0.3477819661060441  0.8249262624413941   T   T   T
  0.7585440459038968  0.2260137378423288  0.7690444084202979   T   T   T
  0.7866033089414547  0.1609174154431260  0.7210695562720801   T   T   T
  0.9273549204472804  0.1595417611900589  0.8614666851149059   T   T   T
  0.9298417244880967  0.2048993550601908  0.9170485476055656   T   T   T
  0.5787150219433101  0.5582034763177143  0.6301361361890326   T   T   T
  0.4399854002307588  0.5374368688705555  0.6177252101840994   T   T   T
  0.5423898543295969  0.3525911970346453  0.5257786302598513   T   T   T
  0.5397742805586987  0.3069701460967411  0.4717046647153064   T   T   T
  0.6339515527043942  0.8490062467148215  0.3929191211250285   T   T   T
  0.6121706745851511  0.9470699783111675  0.4208161090304505   T   T   T
  0.4874972895342279  0.7761846284026680  0.5697066680097739   T   T   T
  0.5570238309157692  0.8354000746452569  0.6103142456259020   T   T   T
  0.3512641893010901  0.1166102218296433  0.3486476539571022   T   T   T
  0.2861999646444709  0.0744496750600722  0.3954450672907727   T   T   T
  0.7086049965293785  0.5729263811792519  0.4835382032135080   T   T   T
  0.6219472158056348  0.4984303821357722  0.5074281991954304   T   T   T
  0.1148149433624586  0.2487499703675515  0.6871252057736387   T   T   T
  0.2228201308351012  0.3146720702154759  0.6965321198771728   T   T   T
  0.9881755254675223  0.4772556572692582  0.7481240782792634   T   T   T
  0.0767104435360488  0.3921314457349727  0.7305586935934700   T   T   T
  0.0595225374507646  0.0090578400683112  0.3670033609638121   T   T   T
  0.9788022345254249  0.0982566679813948  0.3602632813157309   T   T   T
  0.6639042261312751  0.2244169679454542  0.9175423692500803   T   T   T
  0.6006000194245028  0.1594273655918950  0.8781395153270179   T   T   T
  0.2191869233746889  0.3940195660409964  0.9084033530762207   T   T   T
  0.3500077866906642  0.3463176035759065  0.9088637200534542   T   T   T
  0.4839887609645676  0.0282772510471643  0.8527439880224156   T   T   T
  0.5148635787912914  0.0331927299217898  0.9109706894770342   T   T   T
  0.1999477222787455  0.7837197726725809  0.5073654689848603   T   T   T
  0.0810884728983488  0.7241970223954530  0.5020505170904848   T   T   T
  0.2059362138772091  0.3166479064011167  0.3732566840812676   T   T   T
  0.2444213786723384  0.2173277256996045  0.3927916739287255   T   T   T
  0.3265103841389517  0.8322585870481702  0.3552275472021330   T   T   T
  0.3142704305469238  0.8162246302713244  0.4156802077051884   T   T   T
  0.9429808793369185  0.1314911264583953  0.6729034449420677   T   T   T
  0.8503438752016563  0.1923115432940713  0.6403852548314221   T   T   T
  0.9839516780483446  0.3256171556530937  0.8597360205577285   T   T   T
  0.0100870492886766  0.3946017823948892  0.8130176730009581   T   T   T
  0.7900064377724849  0.6068149382097100  0.6207275029771869   T   T   T
  0.7002322013100505  0.6080241501137948  0.5748681655903880   T   T   T
  0.4632880010439219  0.9156947934498209  0.5475248212586697   T   T   T
  0.5037333860332881  0.9841816318938308  0.5022133487750184   T   T   T
  0.2510123903107811  0.6237223091826375  0.6010322742090258   T   T   T
  0.2545130476713084  0.5427059859897871  0.5620260927537988   T   T   T
  0.5017274050236802  0.0850920097708465  0.6809034371750620   T   T   T
  0.5617973047597524  0.0397069017458650  0.6325739280252775   T   T   T
  0.9093969024971417  0.1360062453657853  0.5192635926641661   T   T   T
  0.0244915575816374  0.2013956615220912  0.5281752100521915   T   T   T
  0.8316461152399666  0.0039355958921512  0.3492525211448281   T   T   T
  0.6898135484971663  0.9700780761005376  0.3567499213223033   T   T   T
  0.8869474368585242  0.6141864077835305  0.7605666854948642   T   T   T
  0.7922680911386453  0.5323878290706398  0.7536595750926374   T   T   T
  0.9113397153420900  0.5739536397540078  0.6789877251188461   T   T   T
  0.9623085762513927  0.5200513445281666  0.6316511486318592   T   T   T
  0.2431149065354729  0.3192168758264848  0.4539723188512372   T   T   T
  0.3579203967567000  0.3518230303278090  0.4875577114594168   T   T   T
  0.7073406650579930  0.8153340334462250  0.6838984495932123   T   T   T
  0.7062537571796816  0.7520449348308049  0.6338417702710056   T   T   T
  0.5851474939228758  0.4845160322551988  0.7655961602877230   T   T   T
  0.6860865221417126  0.4232364913059302  0.7931106131557665   T   T   T
  0.7039682972748255  0.0270243007588365  0.4863876001356046   T   T   T
  0.6093524437552778  0.0907649424751320  0.4566073643327269   T   T   T
  0.1160374351125925  0.9845098115145249  0.5180752519315388   T   T   T
  0.0651638367648771  0.8865022154053114  0.5036055836649230   T   T   T
  0.8328407112123237  0.2421175197702296  0.3858744082518028   T   T   T
  0.7417714826766323  0.2603592106676514  0.3415813089597215   T   T   T
  0.3301737118583262  0.6805572916290215  0.9052141617083178   T   T   T
  0.2017220856151375  0.7300757972878928  0.9066846587737353   T   T   T
  0.6854222675880736  0.9766793100764487  0.8765771507770345   T   T   T
  0.7867815157748803  0.9703358330802704  0.9168587675893457   T   T   T
  0.2443034724886780  0.5368110288363411  0.8167436939197926   T   T   T
  0.1794591020376709  0.5156118848103760  0.7677165591423682   T   T   T
  0.9086553531107845  0.9915209459059342  0.5147028074529184   T   T   T
  0.8047783637720822  0.0127678684164053  0.5562134408339220   T   T   T
  0.3944773057536296  0.2805106385972496  0.6753187776758580   T   T   T
  0.4112591445739860  0.3566829119731379  0.7190439436814809   T   T   T
  0.3846281562715514  0.5089805894601919  0.7475932875287059   T   T   T
  0.4687705118538786  0.4995307431764873  0.6984975355661814   T   T   T
  0.4637644322269681  0.1942004037770761  0.7354466201370035   T   T   T
  0.5926693523182178  0.1468833840095362  0.7470263880384486   T   T   T
  0.5105102304947539  0.6440394835602447  0.8777954158230851   T   T   T
  0.5060867980084119  0.7333169493503273  0.9116066679158977   T   T   T
  0.2331876984597612  0.2142507160115565  0.8945056128555336   T   T   T
  0.1035132558624552  0.1755813195929811  0.8861565888353655   T   T   T
  0.9466856985361858  0.3713098067850810  0.6021613099987857   T   T   T
  0.0685408882301369  0.3808060533464462  0.6316498096269182   T   T   T
  0.1104855822307767  0.1111505800388509  0.7293496517302377   T   T   T
  0.1491598278307617  0.0820289436876418  0.6754430470877645   T   T   T
  0.0931241476456941  0.4606230836561840  0.5507252476428659   T   T   T
  0.1878752031357081  0.4361138178969687  0.5085267358324910   T   T   T
  0.5055732775511216  0.4236216891399165  0.8842258197295138   T   T   T
  0.5276853553093587  0.3125063779825489  0.8836764857861343   T   T   T
  0.8575418579913444  0.2587655842863841  0.5613450497313103   T   T   T
  0.7471420695045438  0.3067933157203068  0.5907598353812187   T   T   T
  0.3265671595170165  0.2301206216547326  0.5967355185889581   T   T   T
  0.4318819650142791  0.1679155258333841  0.6212699340536598   T   T   T
  0.0733315095152848  0.5753505339527731  0.4808762185521095   T   T   T
  0.0636429311746892  0.6461838467600166  0.4334296915352643   T   T   T
  0.5307403470900312  0.6386603572233231  0.5197231583065665   T   T   T
  0.4032287668995053  0.6411762838971895  0.5480299956024098   T   T   T
  0.4701069136049942  0.8830134280698335  0.7986712659341408   T   T   T
  0.4951633618950661  0.7861769176793473  0.8260144513635898   T   T   T
  0.0545840989792209  0.8207872349778252  0.8806907926260213   T   T   T
  0.1588622183957921  0.8073403626096605  0.8415899125553887   T   T   T
  0.5108931496941260  0.7690740442875764  0.6820462825490475   T   T   T
  0.4713573970233798  0.7720977247864091  0.7383060359920807   T   T   T
  0.9019659300675524  0.7341727467921262  0.8216834344078124   T   T   T
  0.0047961614874133  0.7316954665920654  0.7810962095283033   T   T   T
  0.2220409536477418  0.2569572142923848  0.5291119238995906   T   T   T
  0.2110690354693666  0.1510416547048601  0.5489181285004595   T   T   T
  0.0792227680869083  0.6899481108052693  0.3434690804553789   T   T   T
  0.1492466861148050  0.7618870601095385  0.3765380735520069   T   T   T
  0.5656800716073034  0.4065374147384631  0.6050165679175269   T   T   T
  0.5231147966824984  0.3027662944174577  0.5981265010874033   T   T   T
  0.3755671855313737  0.8629623415380505  0.4881099872312495   T   T   T
  0.3907167645671440  0.7529634621691946  0.4896799539252763   T   T   T
  0.8163990739965952  0.7952831535820361  0.3555968474801601   T   T   T
  0.9596877256561728  0.7995285909400229  0.3533378029158477   T   T   T
  0.7290345936369351  0.9365354559152468  0.6272517391562534   T   T   T
  0.7765170946986900  0.0407019318377673  0.6365464169984413   T   T   T
  0.2243663917923261  0.0562689107099973  0.9060565541583869   T   T   T
  0.2068341723473612  0.9427569545316437  0.9058837157039281   T   T   T
  0.8523173814912839  0.0284914856562271  0.8418242449178479   T   T   T
  0.8410262214849041  0.0999509395056020  0.7961926583600842   T   T   T
  0.0582401071985445  0.6633430847677633  0.6268024621133598   T   T   T
  0.1174378181943849  0.7298822701975729  0.5852011788444911   T   T   T
  0.1883389918056035  0.7784039973649381  0.6641003111400897   T   T   T
  0.3130207434318663  0.7954321230950355  0.6917366762374094   T   T   T
  0.8151612809276587  0.5395299808864834  0.4131555835345843   T   T   T
  0.8811144957685851  0.6112079835721002  0.4484475342498809   T   T   T
  0.8751284195845319  0.4637847164762065  0.3451744212469970   T   T   T
  0.8145621829508591  0.3899171343484419  0.3798614989670264   T   T   T
  0.0588772622900837  0.0570970118949781  0.8012937100680831   T   T   T
  0.1700467300172876  0.1152050726139296  0.8175045400130209   T   T   T
  0.0435680359876160  0.2295293994731828  0.3997942341072213   T   T   T
  0.9574419710951866  0.1898394354391959  0.4411033033241337   T   T   T
  0.3079322270116595  0.0082121283912344  0.5370671359542112   T   T   T
  0.2288009234150022  0.0133834114447126  0.5864479305417978   T   T   T
  0.3365621224139060  0.0097190380480951  0.6503833591041028   T   T   T
  0.2393366180995118  0.9318348573639468  0.6636758237476014   T   T   T
  0.8791575692341900  0.7635444940723101  0.9130239111458863   T   T   T
  0.8412346011970790  0.8473375204428124  0.8787813201476619   T   T   T
  0.6160735115061833  0.4610902623549125  0.3989312368986204   T   T   T
  0.5467755161374619  0.6232434046927154  0.4212003564863886   T   T   T
  0.2032379782202054  0.5667750327348905  0.3509160552052784   T   T   T
  0.3999873524745119  0.6510039467358202  0.3527919473244073   T   T   T
  0.2452062897733853  0.5030004657960511  0.4047433632715060   T   T   T
  0.3282342478528886  0.6611835138883335  0.4115504476806185   T   T   T
  0.4193880441831246  0.3827620286188708  0.3965794502985965   T   T   T
  0.4535865911218839  0.5363782383860032  0.4469257583698211   T   T   T
  0.5811194037657259  0.5268178815245840  0.3451277161597063   T   T   T
  0.4922144686682993  0.3684897294150837  0.3383921169461220   T   T   T
  0.4501858918750979  0.4214223519201649  0.3633261660969698   T   T   T
  0.5411715181432968  0.4945722313709900  0.3791679386279490   T   T   T
  0.3362658785229889  0.4606170310531930  0.3392920812433302   T   T   T
  0.4817466914688049  0.5687775220754071  0.4115300601707987   T   T   T
  0.2810797139992898  0.5375686792842075  0.3709629480837336   T   T   T
  0.3718932701255659  0.6115889316187942  0.3863009239967800   T   T   T
  0.7071954175916585  0.7337791308947645  0.3784253238674378   T   T   T
  0.1642678232062542  0.9906480860539989  0.4053190264079027   T   T   T
  0.7361279583221882  0.8303247843283772  0.7429183777253824   T   T   T
  0.5772257840189888  0.5372703421034285  0.8751862338329772   T   T   T
  0.4029338611372331  0.0019887855726003  0.7994754624841340   T   T   T
  0.1675394926485875  0.4876096427155404  0.8802135986692728   T   T   T
  0.1594395940982171  0.7456760222817682  0.7803017539086727   T   T   T
  0.5642189007978912  0.1994026094048743  0.4322219692896886   T   T   T
  0.7533656218642529  0.3221397340547409  0.8109274256362039   T   T   T
  0.7472690236256173  0.1628099895232181  0.7547526819674842   T   T   T
  0.9646759689846881  0.2096265460141753  0.8831364812435215   T   T   T
  0.5122572349200503  0.5125792133212166  0.6350939251466573   T   T   T
  0.5145248342421997  0.3625789588373947  0.4907344588040981   T   T   T
  0.6052389265789289  0.9130664073398255  0.3883754322096884   T   T   T
  0.4853138553519344  0.8356187249782685  0.5883835506648042   T   T   T
  0.3409058247608059  0.1256428873843759  0.3849169264527657   T   T   T
  0.6544041601740994  0.5607993789145119  0.5128809618678597   T   T   T
  0.1359033144633015  0.3159589338867116  0.6871641591785670   T   T   T
  0.0597391803873978  0.4386400299856127  0.7573636474643661   T   T   T
  0.9872109543450721  0.0337230667754219  0.3471019947644936   T   T   T
  0.6334487335031266  0.2235454280933485  0.8828141921241722   T   T   T
  0.2613056513951663  0.3358762316125579  0.9206583785013819   T   T   T
  0.5489383068412564  0.0437786565196071  0.8773727108844460   T   T   T
  0.1174667072473721  0.7759705857475259  0.5216596646475115   T   T   T
  0.1889923645711179  0.2704469842871881  0.4002125612138839   T   T   T
  0.2702682314133013  0.8313488918720522  0.3835077696180286   T   T   T
  0.8559280982981967  0.1400724234098356  0.6645796945048926   T   T   T
  0.9700686024294324  0.3889560338897506  0.8464623937309328   T   T   T
  0.7075745849571510  0.6272400625190692  0.6101702547981466   T   T   T
  0.4327452799669764  0.9538269138427112  0.5182730863147172   T   T   T
  0.3083196167616826  0.5804778604776144  0.5840995625228862   T   T   T
  0.4850364195078763  0.0643541901308097  0.6459256683796397   T   T   T
  0.9436736548061857  0.1989307819382932  0.5124781403963553   T   T   T
  0.7468574946192982  0.0183251266365613  0.3400403927045041   T   T   T
  0.8717548595017770  0.5553808962870931  0.7415533585424182   T   T   T
  0.9337937816025027  0.5822612427818524  0.6431848043585475   T   T   T
  0.2681614250663771  0.3441469813568878  0.4873022979184328   T   T   T
  0.6859458610756785  0.8141830193130145  0.6471214699651688   T   T   T
  0.6615348971741346  0.4886299966550651  0.7854957981046686   T   T   T
  0.6248103227705997  0.0263468675266120  0.4687096352842487   T   T   T
  0.0544585530900912  0.9538039070974166  0.4958166132461967   T   T   T
  0.7533119871389512  0.2720455989045184  0.3775919379625707   T   T   T
  0.2448893698722042  0.6716957318498848  0.9175348655114168   T   T   T
  0.7709018423813024  0.9567042712015352  0.8810388843113782   T   T   T
  0.2460398238740071  0.5550803218881463  0.7813275581538252   T   T   T
  0.8358326851554830  0.0296444407395101  0.5224957012961767   T   T   T
  0.3795529776441031  0.2935651253761285  0.7113636720677804   T   T   T
  0.4528163770802301  0.4742202973041429  0.7325495054708087   T   T   T
  0.5057517609441297  0.1335692228841189  0.7398470926261490   T   T   T
  0.4690130193723617  0.7057954270214161  0.8815941633863625   T   T   T
  0.1914213423765739  0.1582070872983942  0.8822696011033357   T   T   T
  0.0157151625580863  0.4143144172067645  0.6078482078513696   T   T   T
  0.0944114005337441  0.1253195263917024  0.6935391578524340   T   T   T
  0.1443627217309893  0.4894137063106244  0.5245634668198317   T   T   T
  0.4656330200546615  0.3622391356882391  0.8823003575919095   T   T   T
  0.8318163333059343  0.2852046745361343  0.5939888117430310   T   T   T
  0.4042280561288466  0.2330328786097771  0.6153066849450345   T   T   T
  0.0311334618607303  0.6302741794633581  0.4667135058777326   T   T   T
  0.4625717797376472  0.6800323580403832  0.5288729640885482   T   T   T
  0.5132617831942335  0.8231483240901718  0.7958762252311751   T   T   T
  0.1436876011822138  0.8257910987105537  0.8768681223551654   T   T   T
  0.4465281375524575  0.7499091536700935  0.7047196462234920   T   T   T
  0.9166334252782814  0.7196040116448877  0.7859960008119664   T   T   T
  0.1894936418840088  0.2168728137242720  0.5562528913632958   T   T   T
  0.0731254212024374  0.7240107610456176  0.3754236125616061   T   T   T
  0.5875268320118496  0.3474511857118108  0.5879467591018066   T   T   T
  0.3393822271273113  0.8034162678580402  0.4750784639934352   T   T   T
  0.8858236660616867  0.8352558199782669  0.3434150169344800   T   T   T
  0.7254751355757918  0.0011036731847462  0.6147328353557626   T   T   T
  0.2553295980487135  0.9948454077589814  0.9193543224588382   T   T   T
  0.8977274748199445  0.0757195424166307  0.8220730165744815   T   T   T
  0.1315740370462977  0.6994858333061897  0.6180421148382801   T   T   T
  0.2273762772341546  0.8188512464571523  0.6895040086141838   T   T   T
  0.8000700711324215  0.5966833110966886  0.4342753265650103   T   T   T
  0.8586543126937821  0.4498620828085593  0.3805215115459822   T   T   T
  0.1427363499778515  0.0717242424468534  0.7912779493373713   T   T   T
  0.9658343883258873  0.1949086084359539  0.4042784672904567   T   T   T
  0.2288838213755087  0.0317361900836241  0.5503734982180989   T   T   T
  0.2490237009078397  0.9957375742331320  0.6494862288032520   T   T   T
  0.8952728919761164  0.7920643286592222  0.8802302956270059   T   T   T
  0.2508744457473643  0.3918499864678154  0.3313125116577638   T   T   T
 
  0.00000000E+00  0.00000000E+00  0.00000000E+00
  0.00000000E+00  0.00000000E+00  0.00000000E+00
  0.00000000E+00  0.00000000E+00  0.00000000E+00
  0.00000000E+00  0.00000000E+00  0.00000000E+00
  0.00000000E+00  0.00000000E+00  0.00000000E+00
  0.00000000E+00  0.00000000E+00  0.00000000E+00
  0.00000000E+00  0.00000000E+00  0.00000000E+00
  0.00000000E+00  0.00000000E+00  0.00000000E+00
  0.00000000E+00  0.00000000E+00  0.00000000E+00
  0.00000000E+00  0.00000000E+00  0.00000000E+00
  0.00000000E+00  0.00000000E+00  0.00000000E+00
  0.00000000E+00  0.00000000E+00  0.00000000E+00
  0.00000000E+00  0.00000000E+00  0.00000000E+00
  0.00000000E+00  0.00000000E+00  0.00000000E+00
  0.00000000E+00  0.00000000E+00  0.00000000E+00
  0.00000000E+00  0.00000000E+00  0.00000000E+00
  0.00000000E+00  0.00000000E+00  0.00000000E+00
  0.00000000E+00  0.00000000E+00  0.00000000E+00
  0.00000000E+00  0.00000000E+00  0.00000000E+00
  0.00000000E+00  0.00000000E+00  0.00000000E+00
  0.00000000E+00  0.00000000E+00  0.00000000E+00
  0.00000000E+00  0.00000000E+00  0.00000000E+00
  0.00000000E+00  0.00000000E+00  0.00000000E+00
  0.00000000E+00  0.00000000E+00  0.00000000E+00
  0.00000000E+00  0.00000000E+00  0.00000000E+00
  0.00000000E+00  0.00000000E+00  0.00000000E+00
  0.00000000E+00  0.00000000E+00  0.00000000E+00
  0.00000000E+00  0.00000000E+00  0.00000000E+00
  0.00000000E+00  0.00000000E+00  0.00000000E+00
  0.00000000E+00  0.00000000E+00  0.00000000E+00
  0.00000000E+00  0.00000000E+00  0.00000000E+00
  0.00000000E+00  0.00000000E+00  0.00000000E+00
  0.00000000E+00  0.00000000E+00  0.00000000E+00
  0.00000000E+00  0.00000000E+00  0.00000000E+00
  0.00000000E+00  0.00000000E+00  0.00000000E+00
  0.00000000E+00  0.00000000E+00  0.00000000E+00
  0.00000000E+00  0.00000000E+00  0.00000000E+00
  0.00000000E+00  0.00000000E+00  0.00000000E+00
  0.00000000E+00  0.00000000E+00  0.00000000E+00
  0.00000000E+00  0.00000000E+00  0.00000000E+00
  0.00000000E+00  0.00000000E+00  0.00000000E+00
  0.00000000E+00  0.00000000E+00  0.00000000E+00
  0.00000000E+00  0.00000000E+00  0.00000000E+00
  0.00000000E+00  0.00000000E+00  0.00000000E+00
  0.00000000E+00  0.00000000E+00  0.00000000E+00
  0.00000000E+00  0.00000000E+00  0.00000000E+00
  0.00000000E+00  0.00000000E+00  0.00000000E+00
  0.00000000E+00  0.00000000E+00  0.00000000E+00
  0.00000000E+00  0.00000000E+00  0.00000000E+00
  0.00000000E+00  0.00000000E+00  0.00000000E+00
  0.00000000E+00  0.00000000E+00  0.00000000E+00
  0.00000000E+00  0.00000000E+00  0.00000000E+00
  0.00000000E+00  0.00000000E+00  0.00000000E+00
  0.00000000E+00  0.00000000E+00  0.00000000E+00
  0.00000000E+00  0.00000000E+00  0.00000000E+00
  0.00000000E+00  0.00000000E+00  0.00000000E+00
  0.00000000E+00  0.00000000E+00  0.00000000E+00
  0.00000000E+00  0.00000000E+00  0.00000000E+00
  0.00000000E+00  0.00000000E+00  0.00000000E+00
  0.00000000E+00  0.00000000E+00  0.00000000E+00
  0.00000000E+00  0.00000000E+00  0.00000000E+00
  0.00000000E+00  0.00000000E+00  0.00000000E+00
  0.00000000E+00  0.00000000E+00  0.00000000E+00
  0.00000000E+00  0.00000000E+00  0.00000000E+00
  0.00000000E+00  0.00000000E+00  0.00000000E+00
  0.00000000E+00  0.00000000E+00  0.00000000E+00
  0.00000000E+00  0.00000000E+00  0.00000000E+00
  0.00000000E+00  0.00000000E+00  0.00000000E+00
  0.00000000E+00  0.00000000E+00  0.00000000E+00
  0.00000000E+00  0.00000000E+00  0.00000000E+00
  0.00000000E+00  0.00000000E+00  0.00000000E+00
  0.00000000E+00  0.00000000E+00  0.00000000E+00
  0.00000000E+00  0.00000000E+00  0.00000000E+00
  0.00000000E+00  0.00000000E+00  0.00000000E+00
  0.00000000E+00  0.00000000E+00  0.00000000E+00
  0.00000000E+00  0.00000000E+00  0.00000000E+00
  0.00000000E+00  0.00000000E+00  0.00000000E+00
  0.00000000E+00  0.00000000E+00  0.00000000E+00
  0.00000000E+00  0.00000000E+00  0.00000000E+00