1-pos-1                                 
   1.00000000000000     
    11.0985002518000009    0.0000000000000000    0.0000000000000000
     0.0000000000000000   14.4173002242999999    0.0000000000000000
     0.0000000000000000    0.0000000000000000   26.7964000702000007
   Pt   H    C    O    K 
    96   170     6    81     4
Selective dynamics
Direct
  0.0000000000000000  0.0000000000000000  0.0018699899937573   F   F   F
  0.1249999521129013  0.1666699702868044  0.0018699899937573   F   F   F
  0.2499999943280642  0.0000000000000000  0.0018699899937573   F   F   F
  0.3749999464409584  0.1666699702868044  0.0018699899937573   F   F   F
  0.4999999886561284  0.0000000000000000  0.0018699899937573   F   F   F
  0.6249999407690225  0.1666699702868044  0.0018699899937573   F   F   F
  0.7499999829841855  0.0000000000000000  0.0018699899937573   F   F   F
  0.8749999350970867  0.1666699702868044  0.0018699899937573   F   F   F
  0.0000000000000000  0.3333300219343514  0.0018699899937573   F   F   F
  0.1249999521129013  0.4999999922211487  0.0018699899937573   F   F   F
  0.2499999943280642  0.3333300219343514  0.0018699899937573   F   F   F
  0.3749999464409584  0.4999999922211487  0.0018699899937573   F   F   F
  0.4999999886561284  0.3333300219343514  0.0018699899937573   F   F   F
  0.6249999407690225  0.4999999922211487  0.0018699899937573   F   F   F
  0.7499999829841855  0.3333300219343514  0.0018699899937573   F   F   F
  0.8749999350970867  0.4999999922211487  0.0018699899937573   F   F   F
  0.0000000000000000  0.6666700318690673  0.0018699899937573   F   F   F
  0.1249999521129013  0.8333299447943858  0.0018699899937573   F   F   F
  0.2499999943280642  0.6666700318690673  0.0018699899937573   F   F   F
  0.3749999464409584  0.8333299447943858  0.0018699899937573   F   F   F
  0.4999999886561284  0.6666700318690673  0.0018699899937573   F   F   F
  0.6249999407690225  0.8333299447943858  0.0018699899937573   F   F   F
  0.7499999829841855  0.6666700318690673  0.0018699899937573   F   F   F
  0.8749999350970867  0.8333299447943858  0.0018699899937573   F   F   F
  0.0000000000000000  0.2222199683821557  0.0864100026098313   F   F   F
  0.1249999521129013  0.0555599860957230  0.0864100026098313   F   F   F
  0.2499999943280642  0.2222199683821557  0.0864100026098313   F   F   F
  0.3749999464409584  0.0555599860957230  0.0864100026098313   F   F   F
  0.4999999886561284  0.2222199683821557  0.0864100026098313   F   F   F
  0.6249999407690225  0.0555599860957230  0.0864100026098313   F   F   F
  0.7499999829841855  0.2222199683821557  0.0864100026098313   F   F   F
  0.8749999350970867  0.0555599860957230  0.0864100026098313   F   F   F
  0.0000000000000000  0.5555599783168788  0.0864100026098313   F   F   F
  0.1249999521129013  0.3888900080300743  0.0864100026098313   F   F   F
  0.2499999943280642  0.5555599783168788  0.0864100026098313   F   F   F
  0.3749999464409584  0.3888900080300743  0.0864100026098313   F   F   F
  0.4999999886561284  0.5555599783168788  0.0864100026098313   F   F   F
  0.6249999407690225  0.3888900080300743  0.0864100026098313   F   F   F
  0.7499999829841855  0.5555599783168788  0.0864100026098313   F   F   F
  0.8749999350970867  0.3888900080300743  0.0864100026098313   F   F   F
  0.0000000000000000  0.8888900002512230  0.0864100026098313   F   F   F
  0.1249999521129013  0.7222199606033044  0.0864100026098313   F   F   F
  0.2499999943280642  0.8888900002512230  0.0864100026098313   F   F   F
  0.3749999464409584  0.7222199606033044  0.0864100026098313   F   F   F
  0.4999999886561284  0.8888900002512230  0.0864100026098313   F   F   F
  0.6249999407690225  0.7222199606033044  0.0864100026098313   F   F   F
  0.7499999829841855  0.8888900002512230  0.0864100026098313   F   F   F
  0.8749999350970867  0.7222199606033044  0.0864100026098313   F   F   F
  0.8738664428243095  0.2852422002179077  0.1714973924099718   T   T   T
  0.0003213954592159  0.4510060128243700  0.1718467498321911   T   T   T
  0.1247654134345236  0.6174885889705937  0.1719772542756661   T   T   T
  0.1248772709692795  0.9513724714056014  0.1713355704463313   T   T   T
  0.9991691715585878  0.1189058132664830  0.1714315857515551   T   T   T
  0.7492636610870719  0.7846011682405842  0.1715559710638413   T   T   T
  0.1243119260427928  0.2844455995356447  0.1717016062724250   T   T   T
  0.0000760498191439  0.7846102857233309  0.1715552789296330   T   T   T
  0.2500603891940523  0.7840807517240952  0.1715102685400545   T   T   T
  0.8740730916777487  0.9514862796998281  0.1710163616163064   T   T   T
  0.3745434108015186  0.9512241223382594  0.1718274332002152   T   T   T
  0.8752133874244556  0.6179831085815989  0.1716210106174706   T   T   T
  0.2496051668229701  0.1182647943982918  0.1716498610351755   T   T   T
  0.4993774420085626  0.1186089223300356  0.1719592943842051   T   T   T
  0.6237460196964553  0.9516769473906164  0.1714902144700694   T   T   T
  0.2501133505238805  0.4519081743187792  0.1729999134979874   T   T   T
  0.7485453502339811  0.1190050734039664  0.1716224143058775   T   T   T
  0.7498875260032851  0.4509616360603914  0.1715557139461178   T   T   T
  0.6220523927171786  0.2861704728586907  0.1735281901705945   T   T   T
  0.3749623499668002  0.2859025475371973  0.1723417873390592   T   T   T
  0.3745856762443225  0.6160590077431813  0.1735827877255433   T   T   T
  0.4989940714208630  0.7841908974499985  0.1714028207552690   T   T   T
  0.4985677085230731  0.4515371627678587  0.1730798459297521   T   T   T
  0.6249037220309663  0.6178779498697730  0.1712022417605210   T   T   T
  0.9981790165431912  0.0175378943024643  0.2573487494149225   T   T   T
  0.1226971783655130  0.5174348135341638  0.2593618970613525   T   T   T
  0.8743843494144172  0.8515660065077247  0.2578526652705079   T   T   T
  0.2446746757115751  0.3496156685442057  0.2580471475456225   T   T   T
  0.8734107148629705  0.1845215117744895  0.2585045357712165   T   T   T
  0.6236958166444999  0.8516745050036931  0.2582017575061262   T   T   T
  0.7498190425025304  0.3506150384169127  0.2590747437507364   T   T   T
  0.2496882383273449  0.6833926154812939  0.2587398085995002   T   T   T
  0.1248894836038441  0.8508591816418957  0.2585102151621269   T   T   T
  0.7496197413134398  0.6854259443088679  0.2587155080656530   T   T   T
 -0.0000702458177087  0.6847025530595707  0.2587933485617538   T   T   T
  0.9976354522564433  0.3507338774470465  0.2594483107966083   T   T   T
  0.2483942509781111  0.0174526809753754  0.2587567659754808   T   T   T
  0.8744677369337915  0.5179329282168964  0.2581446067313403   T   T   T
  0.4984120187121229  0.0181343932017858  0.2593045588346120   T   T   T
  0.3739170064652316  0.8512849082037870  0.2591303067575029   T   T   T
  0.6232209760879320  0.1847673793603463  0.2596777348992720   T   T   T
  0.3726013257188904  0.1841032817816004  0.2583895299590719   T   T   T
  0.1230615693212508  0.1836977571203097  0.2594058646790045   T   T   T
  0.7485497694100421  0.0181671503237827  0.2581765318616733   T   T   T
  0.3767981008012163  0.5163928792959361  0.2672716461625149   T   T   T
  0.6261808378847971  0.5184225823251668  0.2567672357702927   T   T   T
  0.4975142851419944  0.3512225771440584  0.2652721117677296   T   T   T
  0.4985101597286475  0.6852374556780145  0.2581468255597879   T   T   T
  0.2962469167086383  0.7040267399969633  0.4264653808007746   T   T   T
  0.3058472089918981  0.6885341591723634  0.4837044846127064   T   T   T
  0.1332630209599815  0.9309077326541140  0.4781370409074147   T   T   T
  0.2485227214075384  0.9496607723644822  0.4435177301823469   T   T   T
  0.6739156074917964  0.6578743010690166  0.8750602340515383   T   T   T
  0.5942117900631068  0.6187452754288726  0.9191561885829841   T   T   T
  0.7652227425729522  0.6055135938169791  0.7558576913225102   T   T   T
  0.7527401118648008  0.6945736321869226  0.7931693441463165   T   T   T
  0.2141200076156650  0.1985829930515827  0.7638468704884512   T   T   T
  0.2196397802219150  0.1145106533104840  0.8021702593934631   T   T   T
  0.1695413026888087  0.5487229443498305  0.9051253891227136   T   T   T
  0.0349946744784759  0.5131854752149604  0.9068981347900253   T   T   T
  0.1893494084357625  0.8635739901009361  0.8165474732132403   T   T   T
  0.2280255240998403  0.8986217789164627  0.7627096751396567   T   T   T
  0.4317457165129718  0.1419094625529162  0.3434480969533079   T   T   T
  0.4854076984048882  0.1488957257379018  0.3989814758516375   T   T   T
  0.4805900290502907  0.1396619770885473  0.9213850382755088   T   T   T
  0.4697302037211649  0.2245518838102259  0.8846448136577085   T   T   T
  0.5786644848816490  0.1063734776550735  0.8516541326937400   T   T   T
  0.7100523583041557  0.1159878022083323  0.8265235742717085   T   T   T
  0.0678636742865961  0.2782122173882363  0.8751798168541475   T   T   T
  0.1052042997082340  0.3835528959897658  0.8828036481655599   T   T   T
  0.2897699532055355  0.3666168259379380  0.5861162870089071   T   T   T
  0.3745838055292929  0.3597043407886757  0.6343880583232917   T   T   T
  0.5716667019290590  0.2435721528444618  0.5636458175367698   T   T   T
  0.7097179732751406  0.2470636836710157  0.5809457833458858   T   T   T
  0.8717865275938924  0.8142444468809338  0.3756410005831405   T   T   T
  0.7704244951591782  0.7762616177147580  0.3404926485655911   T   T   T
  0.3150836464922594  0.8083142662818000  0.6519596416914269   T   T   T
  0.3135829575072188  0.9136066252242885  0.6707030387632221   T   T   T
  0.7566696985455382  0.6720841433351182  0.4694815953708212   T   T   T
  0.8502420941501302  0.6099505343310648  0.4972397822522512   T   T   T
  0.5992232906040252  0.1046025757641575  0.4609320665547078   T   T   T
  0.6366504857375077  0.2110574323890218  0.4544357662565865   T   T   T
  0.7896581433363982  0.3946997406282444  0.8409950502312397   T   T   T
  0.9267049246425236  0.3711858701719246  0.8315159557797479   T   T   T
  0.0725411907445471  0.6138236903657245  0.7714550689286471   T   T   T
  0.1186208221077171  0.5269266303520429  0.8007872937614614   T   T   T
  0.2609683422040097  0.1765358271073053  0.3935666901417059   T   T   T
  0.1280550404727526  0.2246470459272923  0.3962065294698953   T   T   T
  0.5524060777728638  0.8625219669105058  0.8627715371163693   T   T   T
  0.4121774023767489  0.8604855125395813  0.8540759852843417   T   T   T
  0.4120239018563104  0.3905347244231008  0.8323030793516557   T   T   T
  0.3192512306713788  0.3896417654480586  0.7865508649145448   T   T   T
  0.6828785087025576  0.9807349980602558  0.8653002983646738   T   T   T
  0.7010761994983787  0.9290780663055206  0.9183136021918834   T   T   T
  0.1388515187728682  0.7563478328356296  0.7519692248872177   T   T   T
  0.0339616762676323  0.7193594874525839  0.7172528154481341   T   T   T
  0.2197495839583107  0.5153300948470049  0.4854579272244805   T   T   T
  0.2406799093685541  0.4681078421939623  0.4311855248372670   T   T   T
  0.9851776749785802  0.3093128464285633  0.3490505678261169   T   T   T
  0.9736607642703462  0.3426818949970450  0.4054674409142412   T   T   T
  0.8934716302175797  0.1690735170038528  0.8453375909964451   T   T   T
  0.8304566352809724  0.2510019044686561  0.8152071871135641   T   T   T
  0.7140713708062453  0.4171641849669501  0.9176934171819915   T   T   T
  0.6649129322782099  0.4956322824653200  0.8824730127797791   T   T   T
  0.6704402979763465  0.6291975074629909  0.5924013863463847   T   T   T
  0.5436021840350264  0.5781148870106692  0.5851614650667638   T   T   T
  0.5174135256465929  0.8177885020431025  0.5763593836984704   T   T   T
  0.6411782193468600  0.7845568442605766  0.5989904047431933   T   T   T
  0.0746774979918554  0.6759962286255848  0.6222198779419856   T   T   T
  0.0039590387799361  0.5815314070850677  0.6188126513674408   T   T   T
  0.4455599424927409  0.1836316656807557  0.6583860273433527   T   T   T
  0.4652292816270241  0.0735354892466589  0.6511118855037139   T   T   T
  0.7943251370048777  0.1165444094377696  0.5870887574791437   T   T   T
  0.8920613173425369  0.1901890267994637  0.6063676271636758   T   T   T
  0.0303642499466069  0.8438483610910645  0.3377794020105506   T   T   T
  0.0414690688389855  0.9162396106489942  0.3808227757118198   T   T   T
  0.9003002452578026  0.8260004394261207  0.7101354072940944   T   T   T
  0.8311235261626140  0.7303023853406158  0.7237168525004223   T   T   T
  0.8283688159778861  0.7364394747310844  0.6439966671688693   T   T   T
  0.8759451174761455  0.6858374170799634  0.5965654126189195   T   T   T
  0.2634675667685407  0.3641260337069092  0.5018531927958880   T   T   T
  0.3494181280139019  0.2826813400405179  0.5235585454937985   T   T   T
  0.5215892713796260  0.9080978891831694  0.7881545465821603   T   T   T
  0.5759383498177341  0.0081185049485924  0.7831983709391389   T   T   T
  0.5823484619858627  0.6638958767759304  0.7404948364455739   T   T   T
  0.4624822478406785  0.6364343925666668  0.7683553246732764   T   T   T
  0.1062086331298629  0.0790229398909107  0.3903914785327237   T   T   T
  0.0596621696615447  0.0364752219686797  0.3398343567025645   T   T   T
  0.5970167108793485  0.6556283713999135  0.5164869925863308   T   T   T
  0.5078454380162335  0.6824836027337688  0.4727246731060774   T   T   T
  0.7235690388072430  0.9072693075243102  0.3719278983165379   T   T   T
  0.6439738164769908  0.9787031850204913  0.3434331719646787   T   T   T
  0.2904532044274544  0.6430750952500682  0.8613829620574359   T   T   T
  0.2515011248918159  0.6763153101234498  0.9160004871325635   T   T   T
  0.8634006449130424  0.7448385239671707  0.8626544105097207   T   T   T
  0.7451147407553346  0.8040455808077404  0.8603190082654238   T   T   T
  0.9571282363946605  0.5685077594203358  0.8470678615273280   T   T   T
  0.8976654524377530  0.6055805213122367  0.8978031241573963   T   T   T
  0.7854244108953951  0.9653720388011736  0.5851267971503696   T   T   T
  0.6761749681469095  0.0036010186370671  0.6192543292839650   T   T   T
  0.0667875712400256  0.3072201901532632  0.6672963863673377   T   T   T
  0.1784695995041186  0.3755740859829100  0.6561551549914506   T   T   T
  0.4801801822115980  0.6117362381014968  0.8479945191826476   T   T   T
  0.3952611321880387  0.5390087328834213  0.8196428736893867   T   T   T
  0.4986084383496144  0.4330109635260306  0.7557908712767082   T   T   T
  0.5268810080866786  0.5166257378555524  0.7211761706204637   T   T   T
  0.0834236795385008  0.7277762599557376  0.8778629063199888   T   T   T
  0.0058774289799205  0.7674021438516392  0.9216637408894732   T   T   T
  0.1771078883615979  0.1101200126581108  0.8806579116279466   T   T   T
  0.3227255437998084  0.1157197551380302  0.8747010304452727   T   T   T
  0.8829848493162520  0.4968158098682698  0.6736868914308518   T   T   T
  0.0009666972224864  0.4453194245388216  0.6568022967242422   T   T   T
  0.0694431340815324  0.1674148864120289  0.6388960238351952   T   T   T
  0.9785539982363081  0.1735988165941076  0.6846523135106669   T   T   T
  0.8757793399695639  0.4844702088906980  0.5736991028098057   T   T   T
  0.7546605137503866  0.5085756230838067  0.5478050388896143   T   T   T
  0.1577571514388741  0.3448364933140033  0.7369040888419967   T   T   T
  0.1459738465727152  0.3304187324561584  0.7971161660822678   T   T   T
  0.8271676048373608  0.4536839510782440  0.7622233515058650   T   T   T
  0.7069656366816784  0.4691835851222740  0.7324857190058919   T   T   T
  0.4854413471298825  0.1212804506656378  0.5296176218075902   T   T   T
  0.4291685310950409  0.1559235831158654  0.5801441388002855   T   T   T
  0.9203387309260139  0.4531832402330539  0.4791237850936531   T   T   T
  0.0537476661986164  0.4443909278901784  0.4583103528445208   T   T   T
  0.3591543183032753  0.5039854968691621  0.6106569878851317   T   T   T
  0.3617768392321434  0.6109145301029295  0.6276927545045787   T   T   T
  0.2770454533018177  0.0358979870230597  0.7360358494639170   T   T   T
  0.3963225240255887  0.9751005290593043  0.7426573954375600   T   T   T
 -0.0001871330202984  0.9030082632129700  0.8736266559513379   T   T   T
  0.8707948728212613  0.9460451987839875  0.8733706924842737   T   T   T
  0.3920686887157154  0.6838577789411929  0.6958293459602127   T   T   T
  0.2482236189865871  0.6899734834602913  0.6932038570263559   T   T   T
  0.0367153914025574  0.9079833489698821  0.7532699040765181   T   T   T
  0.9591765374677881  0.9950211394560032  0.7350634356588851   T   T   T
  0.8891557754822007  0.1306797767464193  0.5181348847047049   T   T   T
  0.9279930274008097  0.0417064925155938  0.4866131920031394   T   T   T
  0.3141428309840703  0.9328502893019203  0.3559663322015359   T   T   T
  0.3679079677981983  0.0194318240978948  0.3834432132000198   T   T   T
  0.5216503440857616  0.3589021948977563  0.6835357851635125   T   T   T
  0.5597170257533766  0.3092496077026645  0.6322299617046984   T   T   T
  0.2903856805330237  0.5917502634444707  0.5537027267656213   T   T   T
  0.1536983998073663  0.6171539119552860  0.5465639740045104   T   T   T
  0.9433628544620218  0.8940861709254980  0.5174786509869194   T   T   T
  0.9475567946624531  0.8668556382554466  0.4600197484578780   T   T   T
  0.5688891232780297  0.9627271368732744  0.6976205248019193   T   T   T
  0.5541755736584714  0.9130214455469546  0.6445860924516414   T   T   T
  0.2594309453187046  0.9680678979497434  0.8731813469101651   T   T   T
  0.2498499521335371  0.8810913702283459  0.9088034994889224   T   T   T
  0.9934402591204359  0.0649392679333125  0.8810646992946878   T   T   T
  0.9901260354857321  0.1434672380798168  0.9224328558584596   T   T   T
  0.8605396660271039  0.8252983767621941  0.5853311651811158   T   T   T
  0.9636404952111243  0.9003332037429272  0.5987760953359194   T   T   T
  0.0403717769972788  0.9319149595026803  0.6713572848024877   T   T   T
  0.1514540788468374  0.8990287449942069  0.6368598461048602   T   T   T
  0.4909723112809352  0.9765164135715433  0.5275382934807754   T   T   T
  0.6225312419699579  0.0140593473247184  0.5389981347294641   T   T   T
  0.6808656651660422  0.3130695942274684  0.5156193611052243   T   T   T
  0.7875384010853432  0.3152501921101052  0.4773363843739387   T   T   T
  0.9150383014494369  0.1391076698089382  0.7672555422445922   T   T   T
  0.0523613065724345  0.1189298965710367  0.7527586520067848   T   T   T
  0.2013914847109678  0.6838223669652952  0.3485193932308052   T   T   T
  0.1351395143206511  0.7563665827776054  0.3822258254477308   T   T   T
  0.3159306679952861  0.9115307840149578  0.5219391462765886   T   T   T
  0.3521023038855833  0.8984079217410321  0.5796193573253822   T   T   T
  0.2544207725115984  0.1053117799173753  0.6286217563310046   T   T   T
  0.1398981482346970  0.0379188339193843  0.6227118626694101   T   T   T
  0.4302369253801608  0.3570784165689331  0.9162248699199774   T   T   T
  0.5502741668204690  0.3715606252800149  0.8853277973038163   T   T   T
  0.3829100548587662  0.3291877475111332  0.3459987717878736   T   T   T
  0.5974741310083841  0.2987389668963648  0.3699279236575798   T   T   T
  0.7208461547553326  0.4286737214968679  0.3504028295067121   T   T   T
  0.4361255412691703  0.5331670065651729  0.4141437352922644   T   T   T
  0.6398006164999740  0.5901502110910434  0.3983939090853416   T   T   T
  0.2257578945226840  0.4376610454261169  0.3397236848767292   T   T   T
  0.4328052308516661  0.6171107098516996  0.3664448455232307   T   T   T
  0.6284755253752408  0.5672021449626387  0.3342888040643328   T   T   T
  0.6969365893280297  0.4365594482416455  0.4156271361734855   T   T   T
  0.5119769396702190  0.3612677994354987  0.4137041510295060   T   T   T
  0.4532730074949273  0.3817627209079092  0.3398415600809855   T   T   T
  0.5558163794232841  0.3666411975556836  0.3766886761155945   T   T   T
  0.3950024087896604  0.4769788477770541  0.3432502030390830   T   T   T
  0.6519498709080770  0.4424206110038354  0.3792626699650981   T   T   T
  0.4638564142969369  0.5465966528070828  0.3751721762872707   T   T   T
  0.6006572650021772  0.5405714606370333  0.3716964380563545   T   T   T
  0.3520176374113106  0.7132877758760602  0.4551445331392083   T   T   T
  0.2173495401773640  0.9544191788892050  0.4782380895540590   T   T   T
  0.6126073189511893  0.6094541963848628  0.8832364364422444   T   T   T
  0.7388965208442621  0.6720216652232276  0.7584549044084680   T   T   T
  0.2022517341339469  0.1303281708285959  0.7663798788993820   T   T   T
  0.1206620768348048  0.4937380194065458  0.9167001091238953   T   T   T
  0.1678876781157463  0.8586693685485336  0.7806927700393852   T   T   T
  0.4107055221892963  0.1348835073844203  0.3791598218884409   T   T   T
  0.4658841813506532  0.1548905524474024  0.8856975496106225   T   T   T
  0.6414594251919056  0.0720703315970349  0.8321797273294373   T   T   T
  0.0761244891976697  0.3377148841736402  0.8578893926717909   T   T   T
  0.3034209830737503  0.3939391103505439  0.6200510219044206   T   T   T
  0.6356291894004465  0.2863527163936207  0.5761705028301365   T   T   T
  0.7860611846294796  0.7934918525930312  0.3757509199930515   T   T   T
  0.2973711850280858  0.8735588953288341  0.6410976553650026   T   T   T
  0.8427996820801221  0.6554883903052859  0.4701459698616413   T   T   T
  0.6084601372493583  0.1544731631608768  0.4362026610854413   T   T   T
  0.8465307317040286  0.3696139611657424  0.8153888990303937   T   T   T
  0.0458627234568867  0.5621152380164058  0.7937748907399437   T   T   T
  0.1810311211508749  0.1754450807905873  0.4099665704642801   T   T   T
  0.4904490830321508  0.8423462096972438  0.8389549439033575   T   T   T
  0.3890446138070048  0.4245586706843226  0.8010765716835603   T   T   T
  0.7092766893530575  0.9207412071815307  0.8817143451089627   T   T   T
  0.1143310955367936  0.7015299765197496  0.7311376306022824   T   T   T
  0.2091994733711035  0.4572411415549850  0.4652796885767628   T   T   T
  0.9886218118196282  0.2877246444300618  0.3840546360660782   T   T   T
  0.8365875852396700  0.1815865277970782  0.8172869277963249   T   T   T
  0.6808272063593794  0.4271363225075947  0.8837562862209037   T   T   T
  0.6247810863684845  0.5881487098999487  0.5700504816523470   T   T   T
  0.5630384405186973  0.8117451338098312  0.6074844018065964   T   T   T
  0.0323613861427136  0.6365320355645775  0.5984801926188513   T   T   T
  0.4135291113303938  0.1273304685848911  0.6419462588964803   T   T   T
  0.8331566574609789  0.1776049908996599  0.5789252734453523   T   T   T
  0.0257139500026163  0.8480959646182242  0.3749902720408433   T   T   T
  0.8896323774749001  0.7603070610708290  0.6995842860083527   T   T   T
  0.8049944389024669  0.7216515321570346  0.6084477734253313   T   T   T
  0.2731622058488735  0.3161990535738813  0.5283449506246257   T   T   T
  0.5370105069989752  0.9585820877968181  0.7628270979216422   T   T   T
  0.4991712851817935  0.6408234354584279  0.7342625169528015   T   T   T
  0.0488666041833898  0.0316065242388055  0.3765750104218733   T   T   T
  0.5901710505692594  0.6937158919208536  0.4856207419061501   T   T   T
  0.6779860169618467  0.9661156608389405  0.3767795793074885   T   T   T
  0.2185628218650208  0.6538390693130578  0.8836632954624268   T   T   T
  0.7768271485598938  0.7413771235896121  0.8526881144067949   T   T   T
  0.9181511697573562  0.5495600904773721  0.8791572943734729   T   T   T
  0.7231439196860117  0.0156755460847922  0.5881225017856695   T   T   T
  0.1050576456372000  0.3675179140299760  0.6776223313162426   T   T   T
  0.4068346333339632  0.6066527543127008  0.8264593286585319   T   T   T
  0.5485272008591637  0.4502393184409262  0.7260428593747449   T   T   T
  0.0098571698639418  0.7650555290399141  0.8846214662072613   T   T   T
  0.2473463977389332  0.0851468708675938  0.8622962486155495   T   T   T
  0.9382805374244951  0.4904853531096539  0.6448734674509647   T   T   T
  0.0006506079265075  0.2051161939507248  0.6525921767345759   T   T   T
  0.8401538658916065  0.4953261467439375  0.5405136915851850   T   T   T
  0.2004734185032488  0.3238490864758392  0.7679890842942451   T   T   T
  0.7908445927795177  0.4931467063459601  0.7358392854478295   T   T   T
  0.4460807568069974  0.1765703209872526  0.5451284482150948   T   T   T
  0.9669825775802620  0.4397933678356886  0.4486259735404565   T   T   T
  0.3880245851779059  0.5674006031232816  0.6008550601631465   T   T   T
  0.3121149494210386  0.9738551271858611  0.7286757335092768   T   T   T
  0.9560029058622318  0.9603690138611621  0.8656420293397130   T   T   T
  0.3225670011587284  0.6957717407481279  0.6726409496923034   T   T   T
  0.9769767779827614  0.9281284508852182  0.7277001137169967   T   T   T
  0.9259887016755777  0.1100879606050885  0.4863551822432100   T   T   T
  0.3418416158282218  0.9537143736423952  0.3889205163666037   T   T   T
  0.4977725825260825  0.3096780188201278  0.6593075636221484   T   T   T
  0.2283142534258797  0.6056912265482162  0.5274072237788588   T   T   T
  0.9738088528289226  0.9139155772937948  0.4837349024220564   T   T   T
  0.5648004884899924  0.9745430489658038  0.6610568207039662   T   T   T
  0.2649551581967147  0.8986972066706412  0.8738947838395446   T   T   T
  0.0095827539056347  0.1337625688947711  0.8866012303133822   T   T   T
  0.8937845559505191  0.8871055461053341  0.5756019279521938   T   T   T
  0.0721762512410891  0.9328885540666677  0.6360670849010260   T   T   T
  0.5566321914845811  0.0172187445125085  0.5134869880566447   T   T   T
  0.7003440187987306  0.3092395177755127  0.4792909428949160   T   T   T
  0.9674407267146128  0.1126108805379933  0.7403107051160593   T   T   T
  0.1754031029297101  0.6948163844749065  0.3833681646640203   T   T   T
  0.3853236603563372  0.9011176906208003  0.5451911769535051   T   T   T
  0.1738194676357059  0.0996101906151859  0.6130554881955951   T   T   T
  0.4676497016560440  0.3420127520481428  0.8836047925755423   T   T   T
  0.2757844478545938  0.4732667572005304  0.3637108966498884   T   T   T
  0.9445453523338460  0.5986922718908385  0.3822043296058993   T   T   T
  0.8291768651147340  0.1257815685169103  0.3853121829974542   T   T   T
  0.5270283207731745  0.8580667666642237  0.4357050214116454   T   T   T
  0.1720152637877549  0.1389094360988672  0.5098883854493085   T   T   T
 
  0.00000000E+00  0.00000000E+00  0.00000000E+00
  0.00000000E+00  0.00000000E+00  0.00000000E+00
  0.00000000E+00  0.00000000E+00  0.00000000E+00
  0.00000000E+00  0.00000000E+00  0.00000000E+00
  0.00000000E+00  0.00000000E+00  0.00000000E+00
  0.00000000E+00  0.00000000E+00  0.00000000E+00
  0.00000000E+00  0.00000000E+00  0.00000000E+00
  0.00000000E+00  0.00000000E+00  0.00000000E+00
  0.00000000E+00  0.00000000E+00  0.00000000E+00
  0.00000000E+00  0.00000000E+00  0.00000000E+00
  0.00000000E+00  0.00000000E+00  0.00000000E+00
  0.00000000E+00  0.00000000E+00  0.00000000E+00
  0.00000000E+00  0.00000000E+00  0.00000000E+00
  0.00000000E+00  0.00000000E+00  0.00000000E+00
  0.00000000E+00  0.00000000E+00  0.00000000E+00
  0.00000000E+00  0.00000000E+00  0.00000000E+00
  0.00000000E+00  0.00000000E+00  0.00000000E+00
  0.00000000E+00  0.00000000E+00  0.00000000E+00
  0.00000000E+00  0.00000000E+00  0.00000000E+00
  0.00000000E+00  0.00000000E+00  0.00000000E+00
  0.00000000E+00  0.00000000E+00  0.00000000E+00
  0.00000000E+00  0.00000000E+00  0.00000000E+00
  0.00000000E+00  0.00000000E+00  0.00000000E+00
  0.00000000E+00  0.00000000E+00  0.00000000E+00
  0.00000000E+00  0.00000000E+00  0.00000000E+00
  0.00000000E+00  0.00000000E+00  0.00000000E+00
  0.00000000E+00  0.00000000E+00  0.00000000E+00
  0.00000000E+00  0.00000000E+00  0.00000000E+00
  0.00000000E+00  0.00000000E+00  0.00000000E+00
  0.00000000E+00  0.00000000E+00  0.00000000E+00
  0.00000000E+00  0.00000000E+00  0.00000000E+00
  0.00000000E+00  0.00000000E+00  0.00000000E+00
  0.00000000E+00  0.00000000E+00  0.00000000E+00
  0.00000000E+00  0.00000000E+00  0.00000000E+00
  0.00000000E+00  0.00000000E+00  0.00000000E+00
  0.00000000E+00  0.00000000E+00  0.00000000E+00
  0.00000000E+00  0.00000000E+00  0.00000000E+00
  0.00000000E+00  0.00000000E+00  0.00000000E+00
  0.00000000E+00  0.00000000E+00  0.00000000E+00
  0.00000000E+00  0.00000000E+00  0.00000000E+00
  0.00000000E+00  0.00000000E+00  0.00000000E+00
  0.00000000E+00  0.00000000E+00  0.00000000E+00
  0.00000000E+00  0.00000000E+00  0.00000000E+00
  0.00000000E+00  0.00000000E+00  0.00000000E+00
  0.00000000E+00  0.00000000E+00  0.00000000E+00
  0.00000000E+00  0.00000000E+00  0.00000000E+00
  0.00000000E+00  0.00000000E+00  0.00000000E+00
  0.00000000E+00  0.00000000E+00  0.00000000E+00
  0.00000000E+00  0.00000000E+00  0.00000000E+00
  0.00000000E+00  0.00000000E+00  0.00000000E+00
  0.00000000E+00  0.00000000E+00  0.00000000E+00
  0.00000000E+00  0.00000000E+00  0.00000000E+00
  0.00000000E+00  0.00000000E+00  0.00000000E+00
  0.00000000E+00  0.00000000E+00  0.00000000E+00
  0.00000000E+00  0.00000000E+00  0.00000000E+00
  0.00000000E+00  0.00000000E+00  0.00000000E+00
  0.00000000E+00  0.00000000E+00  0.00000000E+00
  0.00000000E+00  0.00000000E+00  0.00000000E+00
  0.00000000E+00  0.00000000E+00  0.00000000E+00
  0.00000000E+00  0.00000000E+00  0.00000000E+00
  0.00000000E+00  0.00000000E+00  0.00000000E+00
  0.00000000E+00  0.00000000E+00  0.00000000E+00
  0.00000000E+00  0.00000000E+00  0.00000000E+00
  0.00000000E+00  0.00000000E+00  0.00000000E+00
  0.00000000E+00  0.00000000E+00  0.00000000E+00
  0.00000000E+00  0.00000000E+00  0.00000000E+00
  0.00000000E+00  0.00000000E+00  0.00000000E+00
  0.00000000E+00  0.00000000E+00  0.00000000E+00
  0.00000000E+00  0.00000000E+00  0.00000000E+00
  0.00000000E+00  0.00000000E+00  0.00000000E+00
  0.00000000E+00  0.00000000E+00  0.00000000E+00
  0.00000000E+00  0.00000000E+00  0.00000000E+00
  0.00000000E+00  0.00000000E+00  0.00000000E+00