1-pos-1                                 
   1.00000000000000     
    11.0985002518000009    0.0000000000000000    0.0000000000000000
     0.0000000000000000   14.4173002242999999    0.0000000000000000
     0.0000000000000000    0.0000000000000000   26.7964000702000007
   Pt   H    C    O    K 
    96   170     6    81     4
Selective dynamics
Direct
  0.0000000000000000  0.0000000000000000  0.0018699899937573   F   F   F
  0.1249999521129013  0.1666699702868044  0.0018699899937573   F   F   F
  0.2499999943280642  0.0000000000000000  0.0018699899937573   F   F   F
  0.3749999464409584  0.1666699702868044  0.0018699899937573   F   F   F
  0.4999999886561284  0.0000000000000000  0.0018699899937573   F   F   F
  0.6249999407690225  0.1666699702868044  0.0018699899937573   F   F   F
  0.7499999829841855  0.0000000000000000  0.0018699899937573   F   F   F
  0.8749999350970867  0.1666699702868044  0.0018699899937573   F   F   F
  0.0000000000000000  0.3333300219343514  0.0018699899937573   F   F   F
  0.1249999521129013  0.4999999922211487  0.0018699899937573   F   F   F
  0.2499999943280642  0.3333300219343514  0.0018699899937573   F   F   F
  0.3749999464409584  0.4999999922211487  0.0018699899937573   F   F   F
  0.4999999886561284  0.3333300219343514  0.0018699899937573   F   F   F
  0.6249999407690225  0.4999999922211487  0.0018699899937573   F   F   F
  0.7499999829841855  0.3333300219343514  0.0018699899937573   F   F   F
  0.8749999350970867  0.4999999922211487  0.0018699899937573   F   F   F
  0.0000000000000000  0.6666700318690673  0.0018699899937573   F   F   F
  0.1249999521129013  0.8333299447943858  0.0018699899937573   F   F   F
  0.2499999943280642  0.6666700318690673  0.0018699899937573   F   F   F
  0.3749999464409584  0.8333299447943858  0.0018699899937573   F   F   F
  0.4999999886561284  0.6666700318690673  0.0018699899937573   F   F   F
  0.6249999407690225  0.8333299447943858  0.0018699899937573   F   F   F
  0.7499999829841855  0.6666700318690673  0.0018699899937573   F   F   F
  0.8749999350970867  0.8333299447943858  0.0018699899937573   F   F   F
  0.0000000000000000  0.2222199683821557  0.0864100026098313   F   F   F
  0.1249999521129013  0.0555599860957230  0.0864100026098313   F   F   F
  0.2499999943280642  0.2222199683821557  0.0864100026098313   F   F   F
  0.3749999464409584  0.0555599860957230  0.0864100026098313   F   F   F
  0.4999999886561284  0.2222199683821557  0.0864100026098313   F   F   F
  0.6249999407690225  0.0555599860957230  0.0864100026098313   F   F   F
  0.7499999829841855  0.2222199683821557  0.0864100026098313   F   F   F
  0.8749999350970867  0.0555599860957230  0.0864100026098313   F   F   F
  0.0000000000000000  0.5555599783168788  0.0864100026098313   F   F   F
  0.1249999521129013  0.3888900080300743  0.0864100026098313   F   F   F
  0.2499999943280642  0.5555599783168788  0.0864100026098313   F   F   F
  0.3749999464409584  0.3888900080300743  0.0864100026098313   F   F   F
  0.4999999886561284  0.5555599783168788  0.0864100026098313   F   F   F
  0.6249999407690225  0.3888900080300743  0.0864100026098313   F   F   F
  0.7499999829841855  0.5555599783168788  0.0864100026098313   F   F   F
  0.8749999350970867  0.3888900080300743  0.0864100026098313   F   F   F
  0.0000000000000000  0.8888900002512230  0.0864100026098313   F   F   F
  0.1249999521129013  0.7222199606033044  0.0864100026098313   F   F   F
  0.2499999943280642  0.8888900002512230  0.0864100026098313   F   F   F
  0.3749999464409584  0.7222199606033044  0.0864100026098313   F   F   F
  0.4999999886561284  0.8888900002512230  0.0864100026098313   F   F   F
  0.6249999407690225  0.7222199606033044  0.0864100026098313   F   F   F
  0.7499999829841855  0.8888900002512230  0.0864100026098313   F   F   F
  0.8749999350970867  0.7222199606033044  0.0864100026098313   F   F   F
  0.2502021463577642  0.4504049722086532  0.1730176399148541   T   T   T
  0.4982896681199115  0.4502564548584857  0.1723521248898690   T   T   T
  0.1244368430498323  0.6170470770422691  0.1717405613990786   T   T   T
  0.8755392395791137  0.2824209623586179  0.1715472033306879   T   T   T
  0.9999270813223770  0.4493197359812242  0.1712805444161902   T   T   T
  0.0009511682438749  0.1166571568166086  0.1718190532944114   T   T   T
  0.1259282559690554  0.9493789093269013  0.1716728818600345   T   T   T
  0.3748769395308507  0.9491793449847056  0.1717248637656810   T   T   T
  0.8750664624068398  0.6162151953279899  0.1713016227864002   T   T   T
  0.5004935159102422  0.1156304758817495  0.1714960762332300   T   T   T
  0.2496986021026960  0.1152077423687965  0.1712072773577020   T   T   T
  0.2502903614242815  0.7821462851054615  0.1716960184358092   T   T   T
  0.7510415572185412  0.1161061057785827  0.1716193951153333   T   T   T
  0.6254249628076820  0.2816721572004929  0.1713577369442124   T   T   T
  0.3740417886582220  0.6148541814407518  0.1738643613802363   T   T   T
  0.9999932584288822  0.7832297545345988  0.1717512816447438   T   T   T
  0.7496556983200277  0.7829799133231116  0.1715204289997620   T   T   T
  0.6246953579031460  0.9491624558194707  0.1713418454069953   T   T   T
  0.8752995877840234  0.9491706998214591  0.1715513005824699   T   T   T
  0.7494934606610859  0.4487592556928557  0.1713899556038727   T   T   T
  0.3745423618881407  0.2830613497709197  0.1715851523594862   T   T   T
  0.1270529896001220  0.2842439820369562  0.1734695677433516   T   T   T
  0.4993431239109510  0.7820854323538864  0.1716991190340558   T   T   T
  0.6241624328472507  0.6156592873210740  0.1715814842457875   T   T   T
  0.3731047573993438  0.5100167671567953  0.2673457703736165   T   T   T
  0.1217426102150554  0.5140801050988237  0.2572894132502054   T   T   T
  0.0006489212350110  0.0128751213070496  0.2585016754863603   T   T   T
  0.8747832613780190  0.1801104008178233  0.2590038400918712   T   T   T
  0.7512746667778507  0.3466803588678855  0.2590391092724477   T   T   T
  0.9996037015733686  0.6815329907500217  0.2593820752600186   T   T   T
  0.6245899676857203  0.8467245913914008  0.2586697288696028   T   T   T
  0.2500170451029291  0.6799550237355375  0.2590614257265233   T   T   T
  0.7494223478868877  0.6801343320339704  0.2571173621741272   T   T   T
  0.9982060448945751  0.3465666150251745  0.2588692876710095   T   T   T
  0.1251599504101150  0.8470746690815447  0.2586884009917394   T   T   T
  0.6265197770055949  0.1789652178780671  0.2594189950505410   T   T   T
  0.2505296830709831  0.0129364376961161  0.2595904869398380   T   T   T
  0.3761569191415829  0.1777423232804218  0.2568339946419104   T   T   T
  0.8743653618659665  0.5137019514095136  0.2575488983847754   T   T   T
  0.5006099760537706  0.0127688862160551  0.2586692228610548   T   T   T
  0.3744447505318136  0.8465714926011957  0.2586811411847767   T   T   T
  0.5051185744434660  0.3450086630052462  0.2561258958945855   T   T   T
  0.1256865010844937  0.1790500516520524  0.2581377100654537   T   T   T
  0.7506820507018147  0.0131787028497462  0.2577549258088282   T   T   T
  0.8749630634459039  0.8472909787728786  0.2594899930296327   T   T   T
  0.2516960652658987  0.3452056197227545  0.2616262896034578   T   T   T
  0.6258595754326620  0.5130746616792432  0.2581654750056701   T   T   T
  0.4990089174167344  0.6792240107286782  0.2590667743283343   T   T   T
  0.7010713998825321  0.7311873337085369  0.3416045659608502   T   T   T
  0.8284590065058322  0.7662679916624036  0.3519347916748823   T   T   T
  0.3714025252194609  0.8470534570417364  0.4060164237697889   T   T   T
  0.3130985151408772  0.8040161355660386  0.4554115302668282   T   T   T
  0.8262183009118009  0.7792357051419347  0.7580931404280389   T   T   T
  0.6942912687006201  0.8234558783821290  0.7548158150495062   T   T   T
  0.5972846915866336  0.5349120914035964  0.8571463328337053   T   T   T
  0.5771929692337436  0.5609976270557241  0.9149717695181485   T   T   T
  0.2068723840309890  0.9650192027547261  0.8074110254834147   T   T   T
  0.2795481090931806  0.8834733288715479  0.8352378159911277   T   T   T
  0.9794612751159106  0.4156829929820177  0.9244816740925198   T   T   T
  0.9843213788852194  0.3462888472102102  0.8787023271429889   T   T   T
  0.1757160853536250  0.7250881849102770  0.8149441848553370   T   T   T
  0.1604471534167481  0.7370496176807447  0.7560717098228887   T   T   T
  0.9682965449433454  0.1728486770995278  0.4758616129852927   T   T   T
  0.8577583162009454  0.1098607500293268  0.4888424189997856   T   T   T
  0.6132846358036552  0.2532238831378207  0.8699648377468375   T   T   T
  0.7408387655116859  0.2995188682332133  0.8781155826355833   T   T   T
  0.7196223157496476  0.2159232487982845  0.8038153337147237   T   T   T
  0.7956203902012438  0.2256403999509777  0.7557581212680302   T   T   T
  0.8371035918411723  0.0340895874728277  0.8516942417235313   T   T   T
  0.8240062156591560  0.0600530536688406  0.9101040055346977   T   T   T
  0.3456856935574573  0.4425747611242901  0.7152024386015438   T   T   T
  0.2956740117929139  0.4508122804873597  0.6595256898936870   T   T   T
  0.5850719552036678  0.2953675582722518  0.5301211337125683   T   T   T
  0.5714923850801635  0.1948883692893899  0.5142790810973987   T   T   T
  0.8594666752920616  0.6881409274541853  0.4651229806342438   T   T   T
  0.7465159723905965  0.6931811037052930  0.4327282169914531   T   T   T
  0.5219681123033897  0.7023586473794623  0.6060799251393142   T   T   T
  0.6184126560671137  0.7706574029820442  0.6337242419614171   T   T   T
  0.5144643940634477  0.0215462165834700  0.5091773752746330   T   T   T
  0.4295704264890927  0.9386459946098142  0.5120705652971300   T   T   T
  0.7636821907888529  0.5696740694071261  0.4789570258175412   T   T   T
  0.7084909440545063  0.4724556545371907  0.4649382194087623   T   T   T
  0.1381199205498137  0.2224549388533631  0.6916884055945974   T   T   T
  0.1908969453083929  0.3276534915091537  0.6954912399623391   T   T   T
  0.9034476633846030  0.3784223613242063  0.7567010728567646   T   T   T
  0.9965259802306905  0.3044138211180973  0.7362238225570771   T   T   T
  0.0000614927151149  0.1380993210998759  0.3350436808025042   T   T   T
  0.0288016860699634  0.2015011041085632  0.3802162281102076   T   T   T
  0.4758063326193637  0.2002601430119323  0.9221990849958416   T   T   T
  0.4962795848408701  0.1182450200548975  0.8822787798772371   T   T   T
  0.1594679558990051  0.3658640399197300  0.9095273588328751   T   T   T
  0.2915734649631247  0.4028238980842526  0.9054335779876597   T   T   T
  0.4068458802838921  0.9926308240028234  0.8594865835843314   T   T   T
  0.4873251730460164  0.9840939337595733  0.9074723153027762   T   T   T
  0.1826992831757621  0.7362902563210546  0.5290624374247669   T   T   T
  0.0617245385825295  0.7011274506053430  0.5050795772888709   T   T   T
  0.3719429226792120  0.2759608955440682  0.3629171479542369   T   T   T
  0.4321592023148088  0.1900990213327828  0.3400116538451199   T   T   T
  0.5202842924644732  0.9380583330597954  0.3733681473229838   T   T   T
  0.4984245628408389  0.8504789596005822  0.3404707593939593   T   T   T
  0.0035878235871079  0.1009883689802270  0.6529657887190240   T   T   T
  0.9186797513882766  0.1572231502951188  0.6128396005277166   T   T   T
  0.9127497049945168  0.1838181422754777  0.8626923012724630   T   T   T
  0.9414548687250055  0.2582582549592546  0.8180836967193325   T   T   T
  0.7545812353161191  0.5211115139256605  0.6067988115680846   T   T   T
  0.7203796698598638  0.5046265796172175  0.5495618262565586   T   T   T
  0.4533596805844406  0.8452705704593069  0.6003062747211197   T   T   T
  0.3444780148919449  0.9140372472293080  0.6070511734945685   T   T   T
  0.2073681412890427  0.5749140170418939  0.6179527353701959   T   T   T
  0.2347166311446045  0.4925588526765980  0.5811800328340986   T   T   T
  0.3767805452766018  0.9650092152222961  0.7685310491091070   T   T   T
  0.4635290152855258  0.0388215011167979  0.7417163142172515   T   T   T
  0.1919870943474039  0.1404921630882778  0.4573946286619878   T   T   T
  0.1352215935802781  0.1372880031450351  0.5110314751971584   T   T   T
  0.6947446810173160  0.0275315755727643  0.3715142469563125   T   T   T
  0.5869629300868225  0.0593199501778321  0.3385516258259879   T   T   T
  0.8703556127201620  0.5602898517985980  0.7597560322610598   T   T   T
  0.7645960189978545  0.4882633527029809  0.7632168985165285   T   T   T
  0.8646706913166160  0.5193132305872042  0.6803070423874947   T   T   T
  0.9304724747097567  0.4697555979969251  0.6351070928963886   T   T   T
  0.2603911094899683  0.2449341650973812  0.4969765545317432   T   T   T
  0.4010384427052542  0.2762288979634218  0.5035338454399402   T   T   T
  0.7736019718182193  0.8277862946053276  0.6843642227168082   T   T   T
  0.8318979589238065  0.7888167848621969  0.6344814692759430   T   T   T
  0.5597214319352496  0.4706944334710218  0.7865880502597662   T   T   T
  0.6412172046939059  0.4006905499665072  0.8195124004927687   T   T   T
  0.6298149573720269  0.0624110144663427  0.5734981828377095   T   T   T
  0.4954455359919031  0.1077878168943153  0.5717006539875089   T   T   T
  0.1043267638057025  0.9658861872060521  0.5236166431810781   T   T   T
  0.0701510912020168  0.8608610549033018  0.5128799036368682   T   T   T
  0.7853924306647687  0.3720614792516561  0.3457072693535704   T   T   T
  0.8182897944146440  0.4535870360350988  0.3799848909009561   T   T   T
  0.3793968591740488  0.7745493163378954  0.8717684753230284   T   T   T
  0.2610438939227768  0.7831783308334183  0.9037341376194347   T   T   T
  0.8032185539105322  0.7967041375845912  0.8844338665777328   T   T   T
  0.7425890350096588  0.8679962504276049  0.9201249643822318   T   T   T
  0.1215103545758756  0.5927677745133326  0.9213048396362221   T   T   T
  0.0676739193764475  0.5255092778014218  0.8814751297595997   T   T   T
  0.9173382949793051  0.9659812723695476  0.5014160664205072   T   T   T
  0.8075832904454996  0.9906064711696986  0.5373808207371614   T   T   T
  0.3399441790994551  0.3127491043982972  0.8177008719156160   T   T   T
  0.4090641952379765  0.2317623903055448  0.8458652374404156   T   T   T
  0.3701381952769924  0.5148436111330618  0.7928838520044578   T   T   T
  0.4193067247334561  0.5730021594104194  0.7458385200573288   T   T   T
  0.4518416418465839  0.1954267003835878  0.7668834577298618   T   T   T
  0.5878225008463184  0.1728082359668357  0.7511537219543716   T   T   T
  0.5469657182817194  0.6944056436348838  0.8689437025095967   T   T   T
  0.6056013156603534  0.7951649955242994  0.8757114189595272   T   T   T
  0.2345896165868682  0.1869763722611555  0.8447056834661276   T   T   T
  0.1003649404028170  0.1905280744964882  0.8645199204742975   T   T   T
  0.9477585503091341  0.3249471476716270  0.5996010035111050   T   T   T
  0.0471318684078670  0.3375374737996140  0.6423427809716301   T   T   T
  0.1085771845856598  0.0796234123256527  0.7281650009048837   T   T   T
  0.1782946723227140  0.0493971460809900  0.6794618101364259   T   T   T
  0.1071218209590636  0.3953868618132438  0.5674225848279186   T   T   T
  0.2211561095817657  0.3734723258505843  0.5325643703730563   T   T   T
  0.2586713745050222  0.5418659986027611  0.8668893319498703   T   T   T
  0.4017525273795218  0.5321810160941941  0.8727395947739822   T   T   T
  0.8561863497829740  0.2225981237711373  0.5420429381929659   T   T   T
  0.7667693752540671  0.2701365426439143  0.5830249882130815   T   T   T
  0.4101190800222076  0.3192407577785416  0.6689916503468011   T   T   T
  0.4813313297923579  0.2297578355256388  0.6889003470083273   T   T   T
  0.9824203874302774  0.6157258543268205  0.4238113035057040   T   T   T
  0.0375150179362693  0.7147351834700465  0.4211363197185429   T   T   T
  0.5458962264705762  0.5716495913265621  0.5741460530957844   T   T   T
  0.4045643017942210  0.5790918379200085  0.5860899394886017   T   T   T
  0.5129385494252570  0.8751843064263105  0.7597917148672096   T   T   T
  0.5393185044493168  0.7985109502226556  0.8036076549093056   T   T   T
  0.0130531304134910  0.8790767699139143  0.9155000641254292   T   T   T
  0.9824547443269858  0.9718682591576980  0.8879752125453564   T   T   T
  0.4667683743382262  0.6988598310659055  0.6831252924428978   T   T   T
  0.4654194427192148  0.7310241311720049  0.7378292274295617   T   T   T
  0.8704521571696242  0.6732223720151054  0.8161798638153405   T   T   T
  0.9848716811240527  0.6877067293137168  0.7828749519428315   T   T   T
  0.3408894392094464  0.2003329232572756  0.5653186538275937   T   T   T
  0.3846653805099438  0.1889223037022313  0.6202774736822422   T   T   T
  0.0964256053899716  0.7618620619639788  0.3450537637584666   T   T   T
  0.1785833631715203  0.7921650434299620  0.3919043773552560   T   T   T
  0.6465670125477779  0.3932750179994942  0.5933530585364534   T   T   T
  0.5743870188187331  0.3054464767636712  0.6172638168269395   T   T   T
  0.3502405647975856  0.8026033951018244  0.5432302712607657   T   T   T
  0.3845281441626565  0.6997914380195662  0.5274000844142719   T   T   T
  0.8536303556354060  0.9706477559020893  0.3417464562290596   T   T   T
  0.8878589623260447  0.0490169310482154  0.3795902071294258   T   T   T
  0.7520321690280171  0.9349392817661843  0.6158103526416152   T   T   T
  0.8258494896733737  0.0291065807698138  0.6127518906033894   T   T   T
  0.2209193037732056  0.0675894146507519  0.9078714134005444   T   T   T
  0.1630297663978889  0.9674490487596857  0.9103174526229800   T   T   T
  0.8155704161896020  0.9452602330619231  0.7730768352991708   T   T   T
  0.7957454718746282  0.0570837266740801  0.7745613926804580   T   T   T
  0.0122566259193902  0.6141145458021743  0.6333863505950216   T   T   T
  0.0757514393604164  0.6808153847838339  0.5926505699951032   T   T   T
  0.1607497846977558  0.7303209954010651  0.6712160479186782   T   T   T
  0.2865908688594659  0.7377745134670050  0.6993890321899593   T   T   T
  0.8414845598766331  0.6125255733630846  0.3676530141845958   T   T   T
  0.9349308053847351  0.5504519982157455  0.3408186546725409   T   T   T
  0.1548133978186306  0.3403884124066806  0.3650554869354669   T   T   T
  0.0220526851396657  0.3390054965358462  0.3480799389950671   T   T   T
  0.0002485254089969  0.0234020296468138  0.7881152818504651   T   T   T
  0.1086259018130196  0.0830096856596325  0.8128682360114340   T   T   T
  0.3536773264544582  0.1318855003397016  0.4087480167949622   T   T   T
  0.3681598707383997  0.0481484285778513  0.4484080557483443   T   T   T
  0.2182595939623482  0.0854131108738435  0.5782738305365355   T   T   T
  0.0743682408352834  0.0765695853733089  0.5835580817278891   T   T   T
  0.3367847621278838  0.9603064698755568  0.6890214458316632   T   T   T
  0.2374399895600670  0.8882527652344646  0.6741019776885224   T   T   T
  0.9670087740760889  0.6583733311351458  0.8848679826572420   T   T   T
  0.8438076763522817  0.6555725604199998  0.9130004017828440   T   T   T
  0.6081714711547982  0.5316676971413731  0.4024240251745095   T   T   T
  0.4777989491741123  0.6733130895133160  0.4189303502444420   T   T   T
  0.1761765741168119  0.5342195915903164  0.3494866513392881   T   T   T
  0.3293175410005477  0.6585814488928585  0.3513528827873814   T   T   T
  0.2355020292831583  0.4853803820252823  0.4053361608413271   T   T   T
  0.2533409494155094  0.6545339675916327  0.4093585244100583   T   T   T
  0.4469241131007058  0.4119570057813892  0.4039839670091216   T   T   T
  0.4221512635668438  0.5732294588653164  0.4492739730469488   T   T   T
  0.5485777203300138  0.5793188986172634  0.3470806634521569   T   T   T
  0.5276389969494781  0.4076907393580460  0.3464972532898398   T   T   T
  0.4657643655428241  0.4505463207912398  0.3690581243448078   T   T   T
  0.5232136288220860  0.5436827768771049  0.3821726069511362   T   T   T
  0.3445665065169458  0.4596501739549971  0.3420476041478934   T   T   T
  0.4372947605674598  0.6047170120836998  0.4122139007534641   T   T   T
  0.2601240204720512  0.5237721406096469  0.3709838465347427   T   T   T
  0.3164407952425500  0.6163932887097991  0.3854916755873560   T   T   T
  0.7609304004862066  0.7352307259554538  0.3691298105304844   T   T   T
  0.2935329301439323  0.8351428807114801  0.4235894247020642   T   T   T
  0.7807989821214685  0.8340348851101644  0.7447397086497178   T   T   T
  0.5500965940599543  0.5746623664826052  0.8805839964979304   T   T   T
  0.2886963760193353  0.9425505584745497  0.8160832369232887   T   T   T
  0.0193912126216917  0.4055172039415416  0.8917199303354613   T   T   T
  0.1314272591736900  0.7025500337090939  0.7857037234340964   T   T   T
  0.8805185640167124  0.1765884057256339  0.4828966274800328   T   T   T
  0.6781272370860852  0.2907153511205305  0.8529926729885131   T   T   T
  0.7357909660454901  0.1838245106040260  0.7714537852620539   T   T   T
  0.8753504480097245  0.0670059526272531  0.8804042542955037   T   T   T
  0.3119801866150098  0.4054005302489198  0.6869242834657683   T   T   T
  0.5616570412614963  0.2583483792907629  0.5001153618584636   T   T   T
  0.7693518227440587  0.6845323780054080  0.4680091744271971   T   T   T
  0.5316764370217089  0.7558027175773754  0.6296221454957095   T   T   T
  0.4722665906317726  0.9759435048528922  0.4869339558096328   T   T   T
  0.7680768103945328  0.5010916251196802  0.4867829047692025   T   T   T
  0.1161351781403819  0.2894580071722017  0.6932579376538497   T   T   T
  0.9245007708067086  0.3115245653352107  0.7580852670151979   T   T   T
  0.9998734389046059  0.1380036969310408  0.3721877983098716   T   T   T
  0.4980114172861113  0.1890479947409381  0.8867960056403268   T   T   T
  0.2452431866348074  0.3476934634327450  0.9169258020375933   T   T   T
  0.4860898130301377  0.0105687716217627  0.8735592595258692   T   T   T
  0.0929926493300111  0.7369943837942179  0.5338692524333220   T   T   T
  0.4193756663414510  0.2201121643332110  0.3730151748663310   T   T   T
  0.5011417407524869  0.8709335116898540  0.3757817867396867   T   T   T
  0.9531637694433036  0.0959074239966222  0.6219522654645245   T   T   T
  0.9555183302108652  0.2422985051030854  0.8537930558903469   T   T   T
  0.6858688802978088  0.5069372369590566  0.5838355420332664   T   T   T
  0.3962295583914536  0.8849465782025178  0.5808891187158847   T   T   T
  0.2712707642448909  0.5287197619766152  0.6092962906158066   T   T   T
  0.4338426481247623  0.9740053653607675  0.7396832735593121   T   T   T
  0.1347962478071260  0.1754860251257952  0.4795190359514027   T   T   T
  0.6089632515939670  0.0484858025650948  0.3741340798594702   T   T   T
  0.8428025720807516  0.4991619974456334  0.7461748762146123   T   T   T
  0.8873458551665085  0.5280766138925493  0.6445307905053712   T   T   T
  0.3180391019675363  0.2815184887546294  0.5175394771786169   T   T   T
  0.7628224052112595  0.8238531829221002  0.6465341664948748   T   T   T
  0.6371521428583866  0.4638588246082558  0.8049769555706423   T   T   T
  0.5701616631616860  0.0944184201427585  0.5519277139043919   T   T   T
  0.0613317799291295  0.9248640301829166  0.4998217941398951   T   T   T
  0.7903447543035729  0.3881576705382334  0.3818323914762051   T   T   T
  0.2900341584050922  0.7819340131982414  0.8691712141550750   T   T   T
  0.7419990381943298  0.8465505229740438  0.8851237597849066   T   T   T
  0.1068223326696611  0.5870083976119883  0.8848537077448945   T   T   T
  0.8344548390027332  0.9940579315934791  0.5018128765394390   T   T   T
  0.3572641720715958  0.2465922424405736  0.8156549356039355   T   T   T
  0.4155887567702945  0.5097364269269914  0.7610070362614686   T   T   T
  0.5017357089152217  0.1637290836204788  0.7412723827742048   T   T   T
  0.5329769711308608  0.7615398251747194  0.8624166029503443   T   T   T
  0.1704789854423359  0.1484992951476819  0.8603068146273136   T   T   T
  0.0070642133199565  0.3703231609554088  0.6138105364073275   T   T   T
  0.1243037718847374  0.0991388355112292  0.6925851379149637   T   T   T
  0.1573920010855602  0.4203026472170114  0.5393555600928327   T   T   T
  0.3281904628607843  0.5005157112024701  0.8597658678322001   T   T   T
  0.8509581397839912  0.2474566035013724  0.5768980645180576   T   T   T
  0.4619422513781331  0.2661709057514892  0.6580439434904987   T   T   T
  0.0048358640780032  0.6678922141993684  0.4459730045369733   T   T   T
  0.4740664155583592  0.6119810484475084  0.5702932224519727   T   T   T
  0.5478819990901052  0.8128547068309985  0.7670061416600651   T   T   T
  0.0427529935261649  0.9207643374846456  0.8891434539121298   T   T   T
  0.4243549487300061  0.6853980375977176  0.7150596002675054   T   T   T
  0.8949520541655699  0.6762337556735248  0.7806572761657009   T   T   T
  0.3570834271370819  0.1515355947185293  0.5909260957320924   T   T   T
  0.0930049340593911  0.7838107290316720  0.3799425399885730   T   T   T
  0.6322040474349944  0.3249464764647720  0.5906278546192629   T   T   T
  0.3318279105174965  0.7520363954010357  0.5181552869411297   T   T   T
  0.8428281329524977  0.9895504250267294  0.3771402958412666   T   T   T
  0.7555478534070103  0.9954785667357847  0.5981196169328512   T   T   T
  0.2376469675570952  0.0040945854706460  0.9210168638181753   T   T   T
  0.8427554743113684  0.0048471180787560  0.7881555353528066   T   T   T
  0.0849636621354365  0.6521630249901742  0.6263741427049183   T   T   T
  0.2079204877373743  0.7702994026214792  0.6940663812186827   T   T   T
  0.8971251230873136  0.5602280305853828  0.3742135914977001   T   T   T
  0.0723253296439266  0.3252544059412798  0.3777567445021816   T   T   T
  0.0872422352750725  0.0394489241573365  0.7852007318920677   T   T   T
  0.3090215021052372  0.0847622104436803  0.4286999383603102   T   T   T
  0.1439029580666652  0.0663796123089132  0.5603694826268888   T   T   T
  0.2712982209629626  0.9494960558620288  0.6639276632897602   T   T   T
  0.8826012899031399  0.6812709334850628  0.8829150490830429   T   T   T
  0.2911288954539270  0.3713169707898190  0.3366914843132148   T   T   T
  0.6611993161484092  0.2306675714037732  0.4040707931030246   T   T   T
  0.6841603068418091  0.8841194658263043  0.4458508394609650   T   T   T
  0.1324670796235168  0.9744300453980846  0.3893349557991025   T   T   T
  0.9765568286438199  0.3837899666296840  0.4644085916560808   T   T   T
 
  0.00000000E+00  0.00000000E+00  0.00000000E+00
  0.00000000E+00  0.00000000E+00  0.00000000E+00
  0.00000000E+00  0.00000000E+00  0.00000000E+00
  0.00000000E+00  0.00000000E+00  0.00000000E+00
  0.00000000E+00  0.00000000E+00  0.00000000E+00
  0.00000000E+00  0.00000000E+00  0.00000000E+00
  0.00000000E+00  0.00000000E+00  0.00000000E+00
  0.00000000E+00  0.00000000E+00  0.00000000E+00
  0.00000000E+00  0.00000000E+00  0.00000000E+00
  0.00000000E+00  0.00000000E+00  0.00000000E+00
  0.00000000E+00  0.00000000E+00  0.00000000E+00
  0.00000000E+00  0.00000000E+00  0.00000000E+00
  0.00000000E+00  0.00000000E+00  0.00000000E+00
  0.00000000E+00  0.00000000E+00  0.00000000E+00
  0.00000000E+00  0.00000000E+00  0.00000000E+00
  0.00000000E+00  0.00000000E+00  0.00000000E+00
  0.00000000E+00  0.00000000E+00  0.00000000E+00
  0.00000000E+00  0.00000000E+00  0.00000000E+00
  0.00000000E+00  0.00000000E+00  0.00000000E+00
  0.00000000E+00  0.00000000E+00  0.00000000E+00
  0.00000000E+00  0.00000000E+00  0.00000000E+00
  0.00000000E+00  0.00000000E+00  0.00000000E+00
  0.00000000E+00  0.00000000E+00  0.00000000E+00
  0.00000000E+00  0.00000000E+00  0.00000000E+00
  0.00000000E+00  0.00000000E+00  0.00000000E+00
  0.00000000E+00  0.00000000E+00  0.00000000E+00
  0.00000000E+00  0.00000000E+00  0.00000000E+00
  0.00000000E+00  0.00000000E+00  0.00000000E+00
  0.00000000E+00  0.00000000E+00  0.00000000E+00
  0.00000000E+00  0.00000000E+00  0.00000000E+00
  0.00000000E+00  0.00000000E+00  0.00000000E+00
  0.00000000E+00  0.00000000E+00  0.00000000E+00
  0.00000000E+00  0.00000000E+00  0.00000000E+00
  0.00000000E+00  0.00000000E+00  0.00000000E+00
  0.00000000E+00  0.00000000E+00  0.00000000E+00
  0.00000000E+00  0.00000000E+00  0.00000000E+00
  0.00000000E+00  0.00000000E+00  0.00000000E+00
  0.00000000E+00  0.00000000E+00  0.00000000E+00
  0.00000000E+00  0.00000000E+00  0.00000000E+00
  0.00000000E+00  0.00000000E+00  0.00000000E+00
  0.00000000E+00  0.00000000E+00  0.00000000E+00
  0.00000000E+00  0.00000000E+00  0.00000000E+00
  0.00000000E+00  0.00000000E+00  0.00000000E+00
  0.00000000E+00  0.00000000E+00  0.00000000E+00
  0.00000000E+00  0.00000000E+00  0.00000000E+00
  0.00000000E+00  0.00000000E+00  0.00000000E+00
  0.00000000E+00  0.00000000E+00  0.00000000E+00
  0.00000000E+00  0.00000000E+00  0.00000000E+00
  0.00000000E+00  0.00000000E+00  0.00000000E+00
  0.00000000E+00  0.00000000E+00  0.00000000E+00
  0.00000000E+00  0.00000000E+00  0.00000000E+00
  0.00000000E+00  0.00000000E+00  0.00000000E+00
  0.00000000E+00  0.00000000E+00  0.00000000E+00
  0.00000000E+00  0.00000000E+00  0.00000000E+00
  0.00000000E+00  0.00000000E+00  0.00000000E+00
  0.00000000E+00  0.00000000E+00  0.00000000E+00
  0.00000000E+00  0.00000000E+00  0.00000000E+00
  0.00000000E+00  0.00000000E+00  0.00000000E+00
  0.00000000E+00  0.00000000E+00  0.00000000E+00
  0.00000000E+00  0.00000000E+00  0.00000000E+00
  0.00000000E+00  0.00000000E+00  0.00000000E+00
  0.00000000E+00  0.00000000E+00  0.00000000E+00
  0.00000000E+00  0.00000000E+00  0.00000000E+00
  0.00000000E+00  0.00000000E+00  0.00000000E+00
  0.00000000E+00  0.00000000E+00  0.00000000E+00
  0.00000000E+00  0.00000000E+00  0.00000000E+00
  0.00000000E+00  0.00000000E+00  0.00000000E+00
  0.00000000E+00  0.00000000E+00  0.00000000E+00
  0.00000000E+00  0.00000000E+00  0.00000000E+00
  0.00000000E+00  0.00000000E+00  0.00000000E+00
  0.00000000E+00  0.00000000E+00  0.00000000E+00
  0.00000000E+00  0.00000000E+00  0.00000000E+00
  0.00000000E+00  0.00000000E+00  0.00000000E+00