1-pos-1
1.000
11.0985002518  0.0000000000000000  0.0000000000000000
0.0000000000000000  14.4173002243  0.0000000000000000
0.0000000000000000  0.0000000000000000  26.7964000702
Pt  H  C  O  K  
96  170  6  81  4  
Direct
  0.4999999886561249  0.3333300219343480  0.0018699899937576
  0.1249999521128992  0.1666699702868031  0.0018699899937576
  0.2499999943280624  0.0000000000000000  0.0018699899937576
  0.3750000365432257  0.1666699702868031  0.0018699899937576
  0.4999999886561249  0.0000000000000000  0.0018699899937576
  0.6250000308712881  0.1666699702868031  0.0018699899937576
  0.7499999829841874  0.0000000000000000  0.0018699899937576
  0.8750000251993506  0.1666699702868031  0.0018699899937576
  0.0000000000000000  0.3333300219343480  0.0018699899937576
  0.1249999521128992  0.4999999922211510  0.0018699899937576
  0.2499999943280624  0.3333300219343480  0.0018699899937576
  0.3750000365432257  0.4999999922211510  0.0018699899937576
  0.0000000000000000  0.0000000000000000  0.0018699899937576
  0.6250000308712881  0.4999999922211510  0.0018699899937576
  0.7499999829841874  0.3333300219343480  0.0018699899937576
  0.8750000251993506  0.4999999922211510  0.0018699899937576
  0.0000000000000000  0.6666699625079541  0.0018699899937576
  0.1249999521128992  0.8333300141554991  0.0018699899937576
  0.2499999943280624  0.6666699625079541  0.0018699899937576
  0.3750000365432257  0.8333300141554991  0.0018699899937576
  0.4999999886561249  0.6666699625079541  0.0018699899937576
  0.6250000308712881  0.8333300141554991  0.0018699899937576
  0.7499999829841874  0.6666699625079541  0.0018699899937576
  0.8750000251993506  0.8333300141554991  0.0018699899937576
  0.0000000000000000  0.2222199683821562  0.0864100026098289
  0.3750000365432257  0.7222199606033073  0.0864100026098289
  0.6250000308712881  0.0555599860957249  0.0864100026098289
  0.4999999886561249  0.2222199683821562  0.0864100026098289
  0.1249999521128992  0.7222199606033073  0.0864100026098289
  0.2499999943280624  0.5555599783168760  0.0864100026098289
  0.3750000365432257  0.3888900080300730  0.0864100026098289
  0.0000000000000000  0.8888900002512240  0.0864100026098289
  0.8750000251993506  0.7222199606033073  0.0864100026098289
  0.7499999829841874  0.8888900002512240  0.0864100026098289
  0.4999999886561249  0.5555599783168760  0.0864100026098289
  0.6250000308712881  0.3888900080300730  0.0864100026098289
  0.4999999886561249  0.8888900002512240  0.0864100026098289
  0.6250000308712881  0.7222199606033073  0.0864100026098289
  0.8750000251993506  0.3888900080300730  0.0864100026098289
  0.7499999829841874  0.5555599783168760  0.0864100026098289
  0.2499999943280624  0.8888900002512240  0.0864100026098289
  0.7499999829841874  0.2222199683821562  0.0864100026098289
  0.8750000251993506  0.0555599860957249  0.0864100026098289
  0.3750000365432257  0.0555599860957249  0.0864100026098289
  0.2499999943280624  0.2222199683821562  0.0864100026098289
  0.0000000000000000  0.5555599783168760  0.0864100026098289
  0.1249999521128992  0.3888900080300730  0.0864100026098289
  0.1249999521128992  0.0555599860957249  0.0864100026098289
  0.2494729861857640  0.1177010240197305  0.1712769994468046
  0.8750989574852531  0.6180979698945451  0.1713430157771835
  0.6246379999744246  0.9506560026334930  0.1714890055366195
  0.8750940018607315  0.9508009673611109  0.1715019923557105
  0.3745719606868298  0.2848459792131014  0.1715519990728997
  0.1244109536129497  0.9512450172109718  0.1715899892505852
  0.0001569581439364  0.4506770268297908  0.1716510049092453
  0.7495390198014212  0.7837149691143788  0.1716620138507160
  0.3742249768680588  0.9506059932705205  0.1716739930717740
  0.0003710411232664  0.7842260218000668  0.1716800013415259
  0.7497359833505860  0.1179360194729215  0.1717000040284015
  0.3743810339893549  0.6169649561023742  0.1717019819060217
  0.1249310238809180  0.2842150011618386  0.1718119966838380
  0.7497869812320257  0.4507280072483550  0.1718820060879030
  0.8744349939016325  0.2840420145442889  0.1718930150293737
  0.4999499818995896  0.1173320228948851  0.1719060018484647
  0.2493109823150421  0.7839480224563864  0.1719080170445305
  0.4989469634964323  0.7837249571147505  0.1719399989524642
  0.5000619790137760  0.4507629652496561  0.1719689953847448
  -0.0003320268429423  0.1180540027273128  0.1720079931604633
  0.1243820307861968  0.6172460073350572  0.1721280092817175
  0.6248410003752791  0.6170669863006163  0.1721359954290895
  0.2491830371001226  0.4509209698666482  0.1721430112968742
  0.6240380089982637  0.2842679930526998  0.1721620063857170
  0.8748819912334742  0.5171670065823311  0.2574049865627536
  0.7495669515032699  0.0173420124510267  0.2575260102820406
  0.3733160252285466  0.1833730281584922  0.2575600073860402
  0.2491369948432045  0.0167699913464027  0.2580539916512893
  0.6243389505601163  0.8505530029354290  0.2581840091159813
  0.8741509915654169  0.8500379966662605  0.2582390165048895
  0.1235939963850098  0.8503449889554646  0.2584140026966061
  0.7496600271420106  0.6835079971068895  0.2589200035013590
  0.1241249690269255  0.1833540232133404  0.2589210110993919
  -0.0009210253428919  0.3503800240967283  0.2589610164731433
  0.3747129707300332  0.5169709920750353  0.2589619867527305
  0.4996439946109512  0.6839249961224102  0.2589809818415733
  0.2492729591596224  0.3505329653524208  0.2590009845284490
  0.4995010023179391  0.0171919843621093  0.2590430050982662
  0.2491089730390918  0.6836879891969221  0.2590730091285798
  -0.0007710050732857  0.0168539876550846  0.2592759841545441
  -0.0004940307136643  0.6836010103603514  0.2593249832737004
  0.7488659558891338  0.3503049753717127  0.2594429841988887
  0.4992760169646618  0.3503970175695830  0.2596220007827371
  0.8741090039103800  0.1836470045575785  0.2596320021261749
  0.3744220305194875  0.8502609926467827  0.2596439813472329
  0.6247719820410339  0.1838720120103978  0.2598069883178916
  0.6241239665581462  0.5170230129103048  0.2598200124554281
  0.1245109671260205  0.5168770077659817  0.2598340068725520
  0.5201810036508017  0.4340999981016813  0.3742169833906782
  0.6521869474054446  0.4984300034127160  0.4433860133777038
  0.5949700274979994  0.6079399654331301  0.3716760077438889
  0.3698309597582163  0.5685249576883226  0.3402139830767185
  0.4262410138912927  0.7130439707895541  0.3805700009435590
  0.3923330090742486  0.6698650128490965  0.4414100016798159
  0.6103049823242064  0.6678479916629116  0.4292590038164089
  0.5251589735338082  0.5347800129045551  0.4758619802135544
  0.4804850095971415  0.3858080163042499  0.4340050144621236
  0.2488710129597944  0.5971240014472257  0.3801480039599950
  0.6579460138153078  0.8431310169647377  0.4965029991023231
  0.7789449748940537  0.8388499796665082  0.5280520130663353
  0.0784809641157358  0.8755999947010135  0.4814200029184635
  0.1468019969396997  0.9698410092364493  0.4737630042372049
  0.5793589993348114  0.7612249748050771  0.8087340069273063
  0.5391689745674867  0.7073390191883264  0.7596299856202317
  0.4786239473336477  0.6268469726924059  0.8223319902028741
  0.3808039738805747  0.5541459826531360  0.8461149983058444
  0.3405030332262320  0.0425030338875219  0.7855270090331538
  0.2288820058897608  0.0751449982413473  0.8193620017047359
  0.1816640045282699  0.4796090039344191  0.8993390133326268
  0.0844040166461295  0.4098089731142341  0.9201980092625165
  0.0521339808868463  0.7104609629156365  0.7657169972924224
  0.1298179904772564  0.7977259834414253  0.7824680160421080
  0.4213089961629404  0.0090770115045138  0.3956859866333852
  0.7977549938392839  0.1922579787391908  0.8833529854005994
  0.6913489954424762  0.2696040132013497  0.8809050073204038
  0.7305979921642947  0.2036180113009010  0.8114029848427218
  0.7918979862684224  0.1459149748754116  0.7671270001249304
  0.4591259976025655  0.2985180257775316  0.6077570105437841
  0.4259809787573086  0.3561309621163342  0.6579040077702654
  0.7035219915171566  0.2988739870130028  0.5177849996138099
  0.6836259699835996  0.2922950160181330  0.4585599919320911
  0.5770010230852044  0.8242559851788742  0.3440490131453389
  0.6796059673717365  0.7881699640857495  0.3783070103985180
  0.6711099545897655  0.7928489954543479  0.6490820018522803
  0.6542879519980441  0.9013859597718803  0.6660489824470213
  0.4698729451444782  0.8979459953382889  0.5304730099103161
  0.4553509830465939  0.8408620068525072  0.4811579901114593
  0.7280349431617605  0.6846539814273208  0.5150650073831722
  0.7737920264143052  0.5801079862305548  0.5073640102544762
  0.1082129993018846  0.3617019774070212  0.6999860037490477
  0.0594990300507406  0.4206490054065899  0.6546199845518680
  0.7946260125163914  0.4955320267215197  0.7291829853566656
  0.7747239541311446  0.4232649598095115  0.6847279840550258
  0.2314600118681235  0.0347110063752798  0.3800160086176828
  0.2835459682482430  -0.0247639984217180  0.3368540168213957
  0.4836589519497838  0.8175519560960164  0.8773609864910681
  0.4113150332415078  0.2703289755616662  0.8900700070724831
  0.3571040149642932  0.2916109767148952  0.8347879917226897
  0.5637179671177019  0.0336520008914191  0.9102439856137717
  0.6392389817578613  0.1041360016537281  0.8783789963703257
  0.1181920052474887  0.8566269556615022  0.6207099818045020
  0.1476969827282876  0.7511959820151305  0.6279649861890723
  0.0755910240993089  0.5145609708186675  0.3432970091467715
  0.1332839542676127  0.4727860205415782  0.3923300134517485
  0.2803520231929865  0.7402229844678258  0.5209440060392341
  0.3540829761537060  0.6628080050586562  0.5488339837243754
  0.1107029753682922  0.2022570075280221  0.7236020118076733
  0.0518050175208809  0.2836730134194435  0.7567029879714980
  0.8665709583995523  0.2814859881435978  0.7797919849404622
  0.8948419853744910  0.3727639652631937  0.7515349803422193
  0.7828859578203645  0.6728419918487887  0.6449649936082257
  0.6466619666775255  0.6407499917654330  0.6421099832411772
  0.5870079607326572  0.0957720223979757  0.5872460091197075
  0.5705230307106637  0.0688089992277432  0.5313480155057906
  0.2909730077697883  0.5988900047629565  0.6174789880973927
  0.2941480313495991  0.5112999580584034  0.5813879834301087
  0.6585599706423930  0.0497109714613575  0.6843530083129979
  0.0402689543506129  0.2276539954733001  0.5530829873107423
  0.7444059839220230  0.6380429662202328  0.7772489940976072
  0.7485499672491883  0.6442209606168450  0.7190659920557078
  0.9380539499750430  0.5996420179576132  0.7353389988348883
  0.0374070361382987  0.5274309948254685  0.7149309963208432
  0.2693429681650169  0.3547859807607183  0.4600089925403177
  0.3286050292613644  0.2956330196145959  0.5055529834048671
  0.7983459745890420  0.0113589921450048  0.7385220010208743
  0.8596469598180740  0.0135050250026581  0.7922199976260301
  0.3735390283320154  0.6184499775465357  0.7603579938582372
  0.3930320224385761  0.5560649965856729  0.7132749902945208
  0.6914549557049730  0.1263550020918323  0.4691910095036195
  0.9193119582391538  0.8527329533776782  0.5953439998733729
  0.7792419519562892  0.8769329765839604  0.6057789836498304
  0.8143610213041306  0.2476659946348150  0.4035999974499291
  0.7443649873918905  0.2275159668570515  0.3532609968205087
  0.3382020016074907  0.4054359629792481  0.8806409793173338
  0.3617379744032417  0.4862639947098962  0.9194020068165119
  0.7599229453215662  0.6806320078887337  0.9152480159928046
  0.6862979526233433  0.7537470144156356  0.8842300061921398
  0.9022969565978850  0.4091800065352684  0.8293009860198783
  0.5243889595854269  0.2345450221186735  0.6961110056251216
  0.6186060138068211  0.2197910115417503  0.7426140059063343
  0.3549739974426767  0.3983139638252778  0.7277710046465374
  0.2679929659430888  0.4375380204240893  0.6866929868114430
  0.5062729983800026  0.1116349784606184  0.7639950122541666
  0.5290769803827918  0.0491490077182189  0.8131210141257372
  0.3564559994814055  0.7372580049408023  0.9222719818802715
  0.3544650097531838  0.6950979617604910  0.8663739882663546
  0.0984450128586337  0.1487859700933813  0.8744879886332098
  0.2323730181095169  0.1970769808352211  0.8748500148745925
  0.9441509899772743  0.4824220132613418  0.5472679897889935
  0.2005179933783456  0.1883340124542515  0.5942719902032402
  0.1763549989272254  0.2975779746036539  0.5938920137894934
  0.1213499994993981  0.4453100025744742  0.5728750115606639
  0.2118240254685507  0.3885970266858348  0.5370350107589132
  0.4149869708074316  0.2681739951203466  0.7584119861906630
  0.2696230060016153  0.2812269937450692  0.7618130027362155
  0.8511169784825647  0.2594969891584988  0.5623730038557947
  0.7552879947577135  0.3252319731884936  0.5948250122495292
  0.5206660241380632  0.2907189927928066  0.5203769895758211
  0.4710899564247014  0.2008989862830320  0.5456400099153644
  0.0875100218916949  0.7207300145200737  0.4892550105855375
  0.1061290240371863  0.7735820040150068  0.5433010016965065
  0.6220670219726561  0.5838969757882480  0.5705689928477726
  0.4944220277969575  0.5625699592722325  0.5983560089413282
  0.2555559702348071  0.9145959919580031  0.7970700147798093
  0.2927490134960398  0.8263210042557344  0.8280130145046903
  0.0502320121954840  0.8247529575584827  0.8974209944993001
  0.1932129523222939  0.7947870143320368  0.9036379863177372
  0.2854619928927936  0.6639270079058611  0.6884500138701769
  0.1474170349939533  0.6440649674721500  0.6838910059556825
  0.8726079902939413  0.7716609786101727  0.8719739942226352
  0.2379890021241041  0.2137620048173502  0.4508170115520236
  0.2642279527384242  0.1070409838174074  0.4496359947021075
  0.0830599611736272  0.2723880295827488  0.3395640077085954
  0.1374959648041191  0.2157770145312378  0.3851680066337719
  0.6123599446598879  0.3656699879991553  0.6396810002498244
  0.6558999716037650  0.4620390015026845  0.6197589958536563
  0.4122310128576142  0.8088909725514316  0.5763170037595552
  0.5166729621031444  0.8631319877091754  0.6057730126985242
  0.8080099830196049  0.7844180133627683  0.4420980045440701
  0.8794319753623489  0.8155929901619924  0.3937390086862236
  0.7779479933425862  0.0731720213623574  0.6161550042821394
  0.7344379704526305  0.1760930243875299  0.6090569985984758
  0.2267670354462369  0.0516679952841981  0.9049660005251223
  0.1992270081393557  0.9407529696260124  0.9131169834716300
  0.7649100155332395  -0.0130950314596203  0.8671770065801441
  -0.0247200066473399  0.7030869748356205  0.6209000073298212
  0.1436039972825619  0.9952979945450716  0.6744589927248802
  0.2543240019787553  0.9272279686226108  0.6643780117239876
  0.9572469936446552  0.6911889774761094  0.4244620161739176
  0.9610220082006269  0.5391879810408423  0.4677739908033268
  0.9212819541398570  0.4322210055317451  0.4670999823561964
  0.0111599763202161  0.0515640229747726  0.7307209904577997
  0.1508169538247773  0.0543709978848040  0.7450229862108113
  0.9944830156858292  0.3023159629188912  0.4171080059530018
  0.9484879723539873  0.2812949676364880  0.4726050128682632
  0.3430820303294990  -0.0249620244013108  0.4881469886153394
  0.2693580152431095  0.0388809965304872  0.5262640116977007
  0.3726180029891234  0.0741659661215743  0.5820840097601806
  0.2526260248131519  0.0317229989585104  0.6068280051574343
  0.7392939418701433  0.4102259721297548  0.8756859853759029
  0.6445179833049846  0.3945629841578883  0.9191799993832590
  0.9206209639309492  0.0769900038655741  0.8779630076565134
  0.9554990097225164  0.1399329949860951  0.9242629955933162
  0.9547289957741351  0.1526470258482013  0.5272560106203307
  0.9360580046222997  0.4742319916787307  0.8746399866623976
  0.9593909770171961  0.5425490125270512  0.5958589944235306
  0.9740279997062440  0.7954829837468296  0.8291989947078797
  0.9623249770407326  0.6270449986719987  0.6629569999500089
  0.0488930024497673  0.6064120094595927  0.4118709965176910
  0.5108969564676439  0.0013200113546865  0.4401680064896853
  0.5739579993221944  0.9013209684083502  0.8684300107117453
  0.5955379420681665  0.0054549741474790  0.7321780145318438
  -0.0189079601062284  0.9372600133015599  0.3454839820179958
  0.0055229984781105  0.9393330089064946  0.4058900065496306
  0.7731840163366458  0.0517549741207688  0.4955320104646017
  0.9673079926505246  0.9980809705097652  0.4991210000209620
  0.8912960107736778  0.9860559729510827  0.5481340016390631
  0.8795469458512482  0.9183269956246493  0.8589460128861335
  0.4830069719672788  0.4498929688006081  0.4117869926965023
  0.5596449843745904  0.5242949707920789  0.4377489875233248
  0.3573209812160721  0.4837470186162141  0.4028350066322708
  0.5560629688681663  0.6158639871447295  0.4094489920756774
  0.3439860263444897  0.5773180047933781  0.3807470023313415
  0.4267490104558813  0.6507409746650760  0.4042629969555887
  0.2692060127236947  0.4331460053439514  0.4128510162192630
  0.7349739888213316  0.8099390189793290  0.4996680137974991
  0.0673880238799563  0.9381559508071290  0.4661089910315994
  0.5881190117503836  0.7026319659297962  0.7898350130821148
  0.3918219490326830  0.6136730082854032  0.8273109799048667
  0.2519309759484417  0.0345690241755508  0.7905230159463691
  0.0962700343072672  0.4758420018497665  0.9121849926096272
  0.0453770319028755  0.7744370184634971  0.7772470162199869
  0.7138450079068186  0.2024770209806555  0.8718770035823555
  0.7481519855489777  0.2049949681299292  0.7743540156752530
  0.9508400018541684  0.1404049973647742  0.8870229933024953
  0.4805060034246599  0.3077760004276698  0.6433669804464643
  0.6497920292275863  0.3173990226191728  0.4893349840145946
  0.6091519436514430  0.8294890037625364  0.3783919844992940
  0.6597899566486362  0.8586749812655076  0.6367460164537188
  0.4810199467386743  0.9020349717127032  0.4926780076955861
  0.7198879865506334  0.6201219965532130  0.5266149916791668
  0.1088629970345810  0.4252299601604267  0.6846799925339024
  0.8293499834364710  0.4404799720613667  0.7126150135829599
  0.2748749768695302  -0.0234770029571493  0.3743030024079327
  0.5641190122948896  0.8343990076397316  0.8639550066184397
  0.3391369928013069  0.2891069711494736  0.8717519867893826
  0.5998799701716649  0.0409000291889690  0.8766699981511608
  0.0947129770826033  0.7939929683024822  0.6079849889283432
  0.0612270112702652  0.5077089944803030  0.3800700084085580
  0.3631350100069923  0.7232080096678604  0.5311039901895963
  0.1263820307408212  0.2649070173043049  0.7369979903368639
  0.9297789580467323  0.3306309729172225  0.7782269986031132
  0.7020099854245064  0.6844749603928798  0.6602230133022475
  0.5240290010406359  0.0899529717647235  0.5608229822151567
  0.3383889638053483  0.5699759921867746  0.5901319937966568
  0.9695069384041224  0.2203060178109189  0.5292719903735242
  0.7891819436215692  0.6147030208237404  0.7482009877250784
  0.0188759738024985  0.5944979896828186  0.7187150120742415
  0.2512670123648210  0.3118710112189753  0.4881569899587773
  0.8648159465008194  0.0404579908114052  0.7577610032245069
  0.3925199712721062  0.6220310224853780  0.7241729840263265
  0.8501309894073087  0.8866200190834018  0.5818920063572413
  0.7363459759956825  0.2255909878687370  0.3900879958731704
  0.3285879999334632  0.4741199734801170  0.8852320064582075
  0.7556400243032699  0.7108169935122213  0.8820980033913779
  0.8688929838458122  0.4546489910054054  0.8534110156621989
  0.5332129446084588  0.2114560252315214  0.7307520020861462
  0.3546739569034642  0.4356040244909947  0.6964189947571834
  0.4957569829407930  0.0486260249209757  0.7787469938249900
  0.3400829764713346  0.7533959778192367  0.8868059865409614
  0.1871940309829745  0.1383430301769165  0.8695039982594982
  -0.0209469743411769  0.4811930036878201  0.5812229985818298
  0.1374590228758677  0.2363570118527826  0.5978729962991042
  0.2050249987272789  0.4190609827085947  0.5702789912065208
  0.3490830213182768  0.3060790114200632  0.7735699924503062
  0.7657989644701374  0.2676499719063979  0.5739750100650444
  0.4510599528245352  0.2678160224125784  0.5406039976283978
  0.1258430389974071  0.7735349771799230  0.5069629862373751
  0.5837449973431553  0.5634299677209088  0.6024760026610360
  0.2636039945600319  0.8459180158740256  0.7952560024545472
  0.1303279692916536  0.8387480188293800  0.9154340111259919
  0.2154610033560318  0.6685019976039205  0.6641789924532636
  0.9401649559189498  0.8162399906305182  0.8625689995464935
  0.2502439912590497  0.1611099834131932  0.4271639835952997
  0.0908990383485716  0.2716790202785817  0.3764200031935377
  0.6877079629531139  0.4018440283455560  0.6328119805487528
  0.4391789781875688  0.8712330189829187  0.5876920018638332
  0.8418059907224625  0.7607839768442187  0.4101999884762118
  0.7118899689819439  0.1145120080954795  0.6249130090658113
  0.1852409743079085  0.9559160026903817  0.6479240104833387
  0.0328420049313315  0.6586740133214555  0.4358370142781956
  0.9018140084626960  0.4948259999452413  0.4810539836033949
  0.0925079944773156  0.0662610187162404  0.7171040120933894
  0.9275649652150417  0.3169259798237883  0.4417919932896285
  0.2715110088420532  0.0159160173146177  0.4905339883553206
  0.2834919969920903  0.0785549986738234  0.5824749951153981
  0.6628900151447757  0.3761200027492168  0.8845930027131096
  0.9287939600963806  0.6473270206491194  0.6297610110235247
  0.4939819683394459  0.0380159940816250  0.4102810068217475
  0.6576979622824393  0.9943220143143010  0.7059319890150757
  0.9501090021861108  0.9194759624729694  0.3788130112032708
  0.6909629973433812  0.0623930268500513  0.4809209806630498
  0.9086960193891374  0.0319140194656202  0.5214229882893263
  0.2574009942953038  0.9922799537660733  0.9204019918865138
  0.8471099505967216  0.9834509776041246  0.8534959897629749
  0.4551669942234491  0.2107199650930141  0.3726330019644863
  0.7199519591580931  0.0035490001043163  0.3756500117041606
  0.1795459706077690  0.7957460010899525  0.3744049937199314
  0.8242290212604524  0.4541690120986517  0.3703350067174129
