1-pos-1
1.000
11.0985002518  0.0000000000000000  0.0000000000000000
0.0000000000000000  14.4173002243  0.0000000000000000
0.0000000000000000  0.0000000000000000  26.7964000702
Pt  H  C  O  K  
96  166  6  81  4  
Direct
  0.0000000000000000  0.0000000000000000  0.0018699899937576
  0.1249999521128992  0.1666699702868031  0.0018699899937576
  0.2499999943280624  0.0000000000000000  0.0018699899937576
  0.3749999464409617  0.1666699702868031  0.0018699899937576
  0.4999999886561249  0.0000000000000000  0.0018699899937576
  0.6250000308712881  0.1666699702868031  0.0018699899937576
  0.7499999829841874  0.0000000000000000  0.0018699899937576
  0.8749999350970866  0.1666699702868031  0.0018699899937576
  0.0000000000000000  0.3333300219343480  0.0018699899937576
  0.1249999521128992  0.4999999922211510  0.0018699899937576
  0.2499999943280624  0.3333300219343480  0.0018699899937576
  0.3749999464409617  0.4999999922211510  0.0018699899937576
  0.4999999886561249  0.3333300219343480  0.0018699899937576
  0.6250000308712881  0.4999999922211510  0.0018699899937576
  0.7499999829841874  0.3333300219343480  0.0018699899937576
  0.8749999350970866  0.4999999922211510  0.0018699899937576
  0.0000000000000000  0.6666699625079541  0.0018699899937576
  0.1249999521128992  0.8333300141554991  0.0018699899937576
  0.2499999943280624  0.6666699625079541  0.0018699899937576
  0.3749999464409617  0.8333300141554991  0.0018699899937576
  0.4999999886561249  0.6666699625079541  0.0018699899937576
  0.6250000308712881  0.8333300141554991  0.0018699899937576
  0.7499999829841874  0.6666699625079541  0.0018699899937576
  0.8749999350970866  0.8333300141554991  0.0018699899937576
  0.0000000000000000  0.2222199683821562  0.0864100026098289
  0.1249999521128992  0.0555599860957249  0.0864100026098289
  0.2499999943280624  0.2222199683821562  0.0864100026098289
  0.3749999464409617  0.0555599860957249  0.0864100026098289
  0.4999999886561249  0.2222199683821562  0.0864100026098289
  0.6250000308712881  0.0555599860957249  0.0864100026098289
  0.7499999829841874  0.2222199683821562  0.0864100026098289
  0.8749999350970866  0.0555599860957249  0.0864100026098289
  0.0000000000000000  0.5555599783168760  0.0864100026098289
  0.1249999521128992  0.3888900080300730  0.0864100026098289
  0.2499999943280624  0.5555599783168760  0.0864100026098289
  0.3749999464409617  0.3888900080300730  0.0864100026098289
  0.4999999886561249  0.5555599783168760  0.0864100026098289
  0.6250000308712881  0.3888900080300730  0.0864100026098289
  0.7499999829841874  0.5555599783168760  0.0864100026098289
  0.8749999350970866  0.3888900080300730  0.0864100026098289
  0.0000000000000000  0.8888900002512240  0.0864100026098289
  0.1249999521128992  0.7222199606033073  0.0864100026098289
  0.2499999943280624  0.8888900002512240  0.0864100026098289
  0.3749999464409617  0.7222199606033073  0.0864100026098289
  0.4999999886561249  0.8888900002512240  0.0864100026098289
  0.6250000308712881  0.7222199606033073  0.0864100026098289
  0.7499999829841874  0.8888900002512240  0.0864100026098289
  0.8749999350970866  0.7222199606033073  0.0864100026098289
  0.8642815125534005  0.2864287243696141  0.1714679050194412
  -0.0135792460315129  0.4491207502765577  0.1729357995499361
  0.1195162092450168  0.6200304819021011  0.1741637930047955
  0.1245895422109612  0.9546035394964679  0.1721299376452239
  0.0000769491265148  0.1271080210365097  0.1691188683527584
  0.7478831283581590  0.7912806905950311  0.1685015584694657
  0.1203260753256651  0.2893784471983252  0.1721205868966404
  -0.0045399407809022  0.7836893677122952  0.1719516358252972
  0.2472943728820360  0.7905856735984986  0.1732821064857815
  0.8835521738812958  0.9488747363145247  0.1702990365662927
  0.3694878153050383  0.9557953330731210  0.1719181265592150
  0.8743287155330927  0.6182063534320792  0.1716790413095838
  0.2389494312143563  0.1273630312355623  0.1744890039016760
  0.4937753362406965  0.1189097740373397  0.1701109501596562
  0.6196299774723766  0.9564926192878490  0.1670058793896265
  0.2529803840338369  0.4569071375441816  0.1739992718605951
  0.7524598247538510  0.1185776956575103  0.1710416585770057
  0.7364469324019156  0.4594479033554019  0.1723432206565623
  0.6104666675032205  0.2846029674393648  0.1721669250762745
  0.3680039557180343  0.2908276063526019  0.1759426030455147
  0.3656175616738747  0.6245091305253134  0.1765778239503902
  0.4944981764549586  0.7850874384527537  0.1719736575221839
  0.4919772966725338  0.4566852925558523  0.1752554317481852
  0.6230013107922935  0.6251937061009378  0.1711383317753911
  -0.0024060575207600  0.0208401164244041  0.2552353143214193
  0.1056052663160422  0.5224761039798443  0.2612386286352289
  0.8651900925751349  0.8574562529788908  0.2617579937500780
  0.2399685177164416  0.3572613563265159  0.2603297165636001
  0.8783131567996348  0.1829799617513400  0.2607529358419468
  0.6144503323044921  0.8537219173430652  0.2538532527122860
  0.7482330948772272  0.3474146172428195  0.2597813062449938
  0.2347312596291993  0.6903694494704370  0.2617637843973139
  0.1186359115851221  0.8546438737768777  0.2610623643651170
  0.7558420263800493  0.6852546231747545  0.2564388699414097
  -0.0041018571759384  0.6873381339245253  0.2587191190621844
  -0.0067894081443823  0.3489299624433846  0.2574996194124407
  0.2431168712333353  0.0182890220289355  0.2609132001270280
  0.8670612616906765  0.5213941759865777  0.2587218528174578
  0.5049889497178702  0.0195030944785401  0.2606976627419737
  0.3642162571870385  0.8481886224710100  0.2631551719867783
  0.6234126911947275  0.1828690230960359  0.2558193412227568
  0.3713814536005902  0.1854334574925454  0.2623397762827748
  0.1231555942685427  0.1902615148623072  0.2615447999260929
  0.7427161908351636  0.0184376782729380  0.2557633452159773
  0.3652213125771296  0.5256150317191532  0.2646646996171328
  0.6252706168722673  0.5214397066261418  0.2597167124004675
  0.4847230189527183  0.3526810365251222  0.2651832268918264
  0.4966705686929180  0.6868166797491221  0.2681583956119210
  0.4291717240649240  0.7921922829455773  0.4806497949000009
  0.3638740025748097  0.7560566872033241  0.4317905312127115
  0.1593293301690205  0.9189161999741350  0.4537143193544377
  0.2508346038149161  -0.1419532117428294  0.4142196933738031
  0.7500744125720830  0.6796391319218538  0.8746771028346221
  0.6466841657399582  0.6466089544412346  0.9078965517407436
  0.8033924053345761  0.6613786140090570  0.7478678728784343
  0.8539795454582105  0.7045090283186606  0.7994713523934973
  0.2759337232256511  0.2223626595357005  0.7758356547161684
  0.2665830136031352  0.1508502355548051  0.8172821192894119
  0.1998676779901175  0.5230389536794242  0.9079287536968921
  0.0631745571647201  0.5355107433281502  0.8963210583391150
  0.2163594306366352  0.8595445031874324  0.8133140393450371
  0.3192733396771611  0.8988693204333412  0.7794947462711211
  0.4302077480356525  0.1121854810218832  0.3507574342776205
  0.4572621543056619  0.1509254857669199  0.4033729955323557
  0.5721888503421946  0.1563339322365699  0.9157486638583706
  0.5764495002522877  0.2413442112993760  0.8788491870514243
  0.6295605484323695  0.0840935320856069  0.8351183950670495
  0.7343037174124722  0.1248054974791484  0.8093196974588287
  0.1153901759377171  0.2899101981350976  0.8537513248931445
  0.1149730218813167  0.3885671144142382  0.8739916746333756
  0.3770547246076154  0.4056239900965187  0.5947448932486792
  0.4822436392729694  0.4097871393870381  0.6342392919263932
  0.6593771294110770  0.3183660296026649  0.5394536497115416
  0.7890515190085892  0.3092770355912107  0.5585785221555055
  0.7816002164700694  0.8095494624803573  0.3966883045764536
  0.7318408615238519  0.7670216634568915  0.3473832459439961
  0.3871275864325155  0.8124544419181448  0.6769972507715512
  0.3593373416154307  0.9120610988204931  0.6941973303453952
  0.7280926073763375  0.7906567327693601  0.4972880560034325
  0.7496248637153182  0.8877706065333352  0.4817182789659572
  0.6599248602541712  0.1181178245445522  0.4235814188758409
  0.6505057768079150  0.2279251057255102  0.4217368182477525
  -0.1354223472902332  0.4249615685517483  0.8370660920100447
  -0.0102968611800919  0.3889368077213815  0.8214372467620690
  1.1172776503373867  0.6274496383277761  0.7392051892346657
  1.1457590563047140  0.5214978508963559  0.7321919482691752
  0.2963023633095522  0.2243565887077898  0.3750100171207437
  0.1900172274319649  0.2425824515886301  0.3354177724229252
  0.5341119610317258  0.9058285333538638  0.8988782941140878
  0.4512344946956034  0.9187324681131909  0.8542945281802228
  0.5308936039033194  0.4473474564002945  0.8301941467891347
  0.4639432362102169  0.4102681698152115  0.7829973459992232
  0.7692125613292135  -0.0101423849004365  0.8633162814443431
  0.8059892535344332  -0.0280764866654952  0.9194789541450560
  0.2110654104476938  0.7699743511333434  0.7358911756333104
  0.0723394412204288  0.7719608991384774  0.7132875071064477
  0.3400854834136572  0.5695843286497635  0.5123497099137589
  0.4087549249155750  0.5423780202079869  0.4614518202260782
  -0.0169349691612177  0.3896325711544751  0.3427269087280594
  0.0442473924547017  0.4173181428211621  0.3978957826188487
  -0.0957614928402267  0.1880795950707655  0.8418439941560265
  0.8654164144152945  0.2781563032752000  0.8165871059312290
  -0.2012858730834092  0.4433588331348182  0.9197629250247288
  -0.2658119594060953  0.5176005179265329  0.8879476682601422
  0.7263891890341219  0.7566464236635297  0.5859157165689688
  0.6044063869811660  0.7062918128344937  0.5919261632886053
  0.4443183923882171  -0.1201961083587088  0.6088045336075713
  0.5642064132119498  0.8503139804037215  0.5821587368203361
  0.1533645429817370  0.7064912229359186  0.6440870082132335
  0.0957771803381814  0.6237266014717127  0.6128937768944656
  0.5057127206254481  0.2466804465447467  0.6336057011994477
  0.5558153469699234  0.1480445236621013  0.6201600826179920
  -0.1254090767150511  0.1606403565555526  0.5737224691758849
  -0.0400044140403558  0.2457937815935338  0.5983853064961469
  0.9057168103023387  -0.1234653733089217  0.3457964519832921
  1.0084341627405755  0.9192796345089287  0.3783646737374722
  0.9450551320480350  0.9068229216427222  0.7283613091000669
  0.8717694209927881  0.8075605715816530  0.7386027815546150
  0.8968152905691678  0.8028093305008474  0.6549210676219396
  -0.0382663181749372  0.7392073364288594  0.6167881502739723
  0.3437873619709278  0.4072526111097944  0.4999314437202316
  0.4154532412478149  0.3091630060659581  0.5110077231168089
  0.5943719982463513  0.9212452869860989  0.7395538321671314
  0.6588636118663010  1.0086790243563839  0.7615263168948386
  0.6631182059041163  0.7639415002703641  0.7716049002266474
  0.5771956612390983  0.8201763496240243  0.8099546732113709
  1.1765643170285267  -0.0213177285912365  0.3875043050632622
  1.1261342000395915  -0.0057202710227951  0.3292614261089493
  0.6293389713233722  0.6033035231408808  0.5004807144342618
  0.5812541216326721  0.6622912209046131  0.4592826232276858
  0.8309680184225123  -0.0117120920611333  0.3787434630589261
  0.7582664480937521  0.0470300218037473  0.3399150401411370
  0.3784627999191842  0.6026946902135338  0.8616551733110346
  0.4038877749696858  0.5901503271298566  0.9176848765870984
  0.9023289737255993  0.7317263020450286  0.8917386949366312
  0.8549598482426553  0.8250613020009815  0.8733138771623563
  0.0506748373690207  0.5963372418789619  0.8164637029445839
  0.0462958580747581  0.6715088095330314  0.8612410649915988
  -0.1128733123826193  0.0165685827293368  0.5737255890277971
  0.7558024152533180  0.0355059782508520  0.5934605792919596
  0.1462430814592956  0.3528980389285768  0.6776683331801169
  0.2376246657986313  0.4243815030214554  0.6639391861627483
  0.5585502182418395  0.6445044852668421  0.8310424314744078
  0.4912739269808735  0.5687752682557559  0.8028475655923968
  0.6811567792390614  0.4279883966416876  0.7607451323422434
  0.8025195494188925  0.3935853420903226  0.7581272488274345
  0.2328679429349778  0.7038246318750484  0.8800050226121287
  0.1490770096195350  0.7514382391468862  0.9177970560997241
  0.2922949819254965  0.1923709177620777  0.9167910584720809
  0.3934031124603412  0.1636084830101765  0.8794803841919242
  0.9582479595813094  0.5427339895240278  0.6390693972674437
  1.0322089878623035  0.4569018861032861  0.6481263891754686
  0.1370878504375617  0.2221698013405640  0.6330340503971059
  0.0580341314400149  0.2296640390840418  0.6833900242430334
  -0.0520310786140987  0.5059559437074960  0.5531181903453860
  -0.1666824377915360  0.4663862632593871  0.5221942482214761
  0.2731034711206510  0.3704016138055612  0.7411196750784956
  0.2586175894562410  0.3677953039475848  0.7995711832287211
  0.9428366160736801  0.5494270533014859  0.7314450567259989
  0.8120537397868962  0.5127144759350324  0.7192719414028417
  0.5536768665841478  0.1896650867262331  0.4964409724981656
  0.5226110194086179  0.2066761014435817  0.5544255538646731
  0.0827485785253780  0.4586931045143777  0.4874664653453394
  0.2023993561324361  0.4763386356361624  0.4562188221504918
  0.4678121622205610  0.5543202712897674  0.6268764040390976
  0.4727005090664515  0.6501963934551510  0.6588350135521853
  0.3367911195743565  1.0581875032321268  0.7525661222839581
  0.4723410084483969  1.0031376618157506  0.7495488428140225
  0.1271207295842681  0.9820806776039415  0.8713284764570145
  -0.0258990159011243  0.9788376144456121  0.8702867958757843
  0.5142443894231890  0.7444816159137130  0.7353255910823896
  0.4045447814331328  0.6747478624051698  0.7311664513543653
  0.0607131677625287  1.0020585767750039  0.7780701181942156
  1.0089721139379935  1.0597651017038341  0.7371340005841528
  -0.0155238017111417  0.1899759483182284  0.5055481231176771
  0.0052338151445804  0.0844679819629079  0.4949843916179821
  0.1686501658452843  0.7268910979766203  0.3867908089425179
  0.2730466347026046  0.7639597391566958  0.3530649619618620
  0.6729144352354052  0.3841515817548917  0.6718916279587261
  0.6820851776051675  0.3922751679241384  0.6122883027353435
  0.3855781013931102  0.6543493784432198  0.5716962419529087
  0.2502126173533777  0.6657985735235710  0.5651828189803170
  1.0227887293653914  0.9252251599794689  0.5176550928318958
  0.9754754934518421  0.9178407163288775  0.4637250309797772
  0.6475667023780424  0.0091488923340642  0.6645761333293561
  0.5589924990265071  -0.0089931190640996  0.6187971388343375
  0.3033523050786944  0.0284627619329418  0.8976105277644661
  0.2931820043768771  0.9228075336723429  0.9157684647868016
  0.0509418705386167  0.1090856368066206  0.8743379927498273
  1.0014760830948617  0.1680850304910440  0.9207517695422976
  -0.0475985905766252  0.8849904567010911  0.5940444225865444
  0.0546397523036185  0.9512846733456921  0.6064053417671906
  0.1231209674458837  0.9695018020253963  0.6878783794095825
  0.2083492587590806  0.9135056380737506  0.6485977554771699
  0.6043961194857914  -0.0026272519064393  0.4965262396756228
  0.7317780856997140  0.0142269010916681  0.5119592075973065
  -0.2540496490093525  0.3362795218295037  0.4674486604277105
  0.8312080695410917  0.3518360263907375  0.4217610025672246
  -0.0354821395563001  0.1887017967077183  0.7652154744809703
  0.1031565943979069  0.1789235298750426  0.7560050280197507
  1.0290693813020073  -0.3136653070994480  0.3419683607310617
  1.0086993376771192  -0.2371302346147814  0.3785935471415091
  0.3612152534167680  -0.0439085962941259  0.4745392384158821
  0.4212595783148027  -0.0537262169164275  0.5283967684392883
  0.3231888550183399  0.1623594925112723  0.6145633938572961
  0.2276152514201450  1.0848076761097873  0.6345178392641120
  0.5311588077266488  0.3580804567972196  0.9210452217477954
  0.6429811058699245  0.3811521259741823  0.8896454087059043
  0.4836498456653573  0.3488472788700766  0.3678477639637073
  0.6743833311790131  0.4263243061097056  0.3558002430073750
  0.6806446743536216  0.5906771161737027  0.3520775907802598
  0.2931653215282220  0.5922420230043153  0.3523672627764856
  0.4987299043492192  0.6781880334239021  0.3656274733931779
  0.2579814403694439  0.3526922225167773  0.3661345294665461
  0.4836451530403343  0.4054270728820727  0.3413173582660179
  0.5976743264410149  0.4591840777056045  0.3384030380739244
  0.3754743137771381  0.4619359156352281  0.3498149720463566
  0.5956127728544131  0.5589183783811538  0.3386827036999177
  0.3781720753143462  0.5605960483209967  0.3404950817646119
  0.4915801233157746  0.6195730577313202  0.3398696769917283
  0.4457615455383379  0.7630979605707815  0.4484002417198692
  0.2402991155374765  -0.0879115096433763  0.4367944224648472
  0.6834773377573912  0.6331843104587377  0.8742919959630661
  0.8041483243875704  0.7185004207126408  0.7695316846770042
  0.2571967913355722  0.1570896276532219  0.7804367046735137
  0.1212097502887223  0.4925906443447746  0.9135545148366374
  0.2767821574182324  0.8401017779241031  0.7893737651395695
  0.3884054000900590  0.1254448183475912  0.3825774524952256
  0.5718700740553331  0.1670329912490203  0.8794264900719596
  0.6981167689340178  0.0599166495987942  0.8104562573221018
  0.1276761467541691  0.3535241811091207  0.8431972293445222
  0.3929066875943682  0.4328044680988783  0.6270419670508596
  0.7358181448773249  0.3489312017184030  0.5406746700692868
  0.7231445789892503  0.7690047232708095  0.3832266220946653
  0.3437004648696871  0.8675171822543678  0.6668159533664791
  0.7789549182825743  0.8254680148881915  0.4737400036327063
  0.6014558356312493  0.1692729863935736  0.4257933287348042
  -0.0899574368291857  0.3948649265002321  0.8078234410402440
  1.0932187003583846  0.5651206159990738  0.7485659424717750
  0.2271097174135039  0.2674389760019864  0.3678907926950660
  0.5260008498403375  0.8939787390135857  0.8619880163450478
  0.5348957666183040  0.4460708796269969  0.7942115432500765
  0.8263446508380786  -0.0501429611822556  0.8839450139737823
  0.1547677139189521  0.7438739151955693  0.7090764104627052
  0.3609305654293538  0.5186061066619028  0.4884924122907492
  -0.0272453098472434  0.3897272489290073  0.3800416469682897
  -0.1365975179893449  0.2117643068744679  0.8097352357949794
  -0.2274542205908030  0.4569308576855867  0.8855155910994315
  0.6349989747359785  0.7591840437470968  0.5763594129935203
  0.4917500663762970  0.8933247031016397  0.5797585947142506
  0.1199462392303047  0.6901512211994674  0.6108858272236499
  0.4844937693836526  0.1901829198838875  0.6162928287843233
  0.9168615767116506  0.2197748875936890  0.5685261337825031
  0.9248697536980488  -0.1142079949701502  0.3815341777520973
  0.9283082456144509  0.8435573346389470  0.7155438052674548
  -0.1093827637570320  0.7838872493097938  0.6203390405894896
  0.3341309816881397  0.3418710612818157  0.5089108628836133
  0.6125833550255900  0.9860159324309424  0.7302098991744885
  0.5903845058918936  0.8041482155555865  0.7723637846009188
  1.1071946312211913  -0.0038370207208948  0.3683694656013667
  0.6485581599038658  0.6175768900749450  0.4650521243283927
  0.7724148157414018  0.0459277311423366  0.3769650698876361
  0.3336666056298372  0.6025950291759161  0.8946381511246436
  0.8606119828803804  0.7576305826724463  0.8639515865470958
  -0.0000197913947846  0.6157884076615358  0.8447581180978780
  0.8154051389720219  0.0535850461376870  0.5676283531837295
  0.1776580437325498  0.4134249633612938  0.6893058130125962
  0.4776960184453883  0.6300176778791475  0.8134581866890790
  0.7467437166797253  0.4211802163393477  0.7354136985667462
  0.1649920887827176  0.7449760412838655  0.8822613699924338
  0.3041851741772467  0.1652724486227927  0.8831660748347443
  1.0098988463672991  0.4984692893741088  0.6204558672897852
  0.0807464079531517  0.2598539132163975  0.6520790890762956
  -0.0909657293683677  0.5034758742947959  0.5193563041282108
  0.3192923739065802  0.3574331657749884  0.7725130756396226
  0.8635183554143422  0.5684413771787088  0.7133685277433359
  0.5353521998376641  0.2388224488934908  0.5210977439028727
  0.1136723197078263  0.4691726914584954  0.4526705149767331
  0.4839046923325492  0.6216434688371173  0.6250495624009763
  0.3834600844298555  0.9976812459559069  0.7482007030114608
  0.0518667557183359  1.0083608746523036  0.8550074333260617
  0.4561450771584150  0.7149299412678667  0.7099641484438401
  1.0332591155223998  0.9932360816600299  0.7442347375040946
  0.0215721831119633  0.1464174720966173  0.4809346921839644
  0.2505914260486623  0.7585306113739455  0.3888257979543681
  0.6270042981141881  0.3741869088435336  0.6401422418071836
  0.3220428898958959  0.6609508084141090  0.5458934053969295
  1.0272778114638417  0.9557741189002008  0.4847119680506792
  0.6291296084052047  0.0338012396924793  0.6319440367712651
  0.2793186680513186  -0.0362661159069666  0.8840566986139637
  1.0300844723453375  0.1742324062077970  0.8853738966184544
  0.0010699642862173  0.9333436688874487  0.5791781457114275
  0.1632497896917334  0.9746008964783295  0.6541112617508841
  0.6821365739458494  -0.0055729077948019  0.4827991377538587
  -0.2497810569090534  0.3232014569028815  0.4310093247989709
  0.0254527461720952  0.1756457132335920  0.7389043173160916
  1.0361053767363757  -0.3010684619082868  0.3804532701255460
  0.4249095002665034  -0.0154137178350109  0.4968158395352931
  0.2438851303590327  0.1340129258696774  0.6101704406922585
  0.5557505505214227  0.3608711188819410  0.8854240522175826
  0.2759210474499328  0.4285669168687924  0.3700794885514628
  0.8917082844139167  0.6175732499759539  0.4379084418899116
  0.9654207441552513  0.1718783516156066  0.3851965146646267
  0.5413622712695391  0.9048206847501765  0.3873863473416384
  0.2731182272765536  0.1644926045032224  0.5104067009736177
