final                                   
   1.00000000000000     
    11.0985002518000009    0.0000000000000000    0.0000000000000000
     0.0000000000000000   14.4173002242999999    0.0000000000000000
     0.0000000000000000    0.0000000000000000   26.7964000702000007
   Pt   H    C    O 
    96   166     6    81
Selective dynamics
Direct
  0.0000000000000000  0.0000000000000000  0.0018699999999967   F   F   F
  0.1250000000000000  0.1666699949999995  0.0018699999999967   F   F   F
  0.2500000000000000  0.0000000000000000  0.0018699999999967   F   F   F
  0.3750000000000000  0.1666699949999995  0.0018699999999967   F   F   F
  0.5000000000000000  0.0000000000000000  0.0018699999999967   F   F   F
  0.6250000000000000  0.1666699949999995  0.0018699999999967   F   F   F
  0.7500000000000000  0.0000000000000000  0.0018699999999967   F   F   F
  0.8750000000000000  0.1666699949999995  0.0018699999999967   F   F   F
  0.0000000000000000  0.3333300050000005  0.0018699999999967   F   F   F
  0.1250000000000000  0.5000000000000000  0.0018699999999967   F   F   F
  0.2500000000000000  0.3333300050000005  0.0018699999999967   F   F   F
  0.3750000000000000  0.5000000000000000  0.0018699999999967   F   F   F
  0.5000000000000000  0.3333300050000005  0.0018699999999967   F   F   F
  0.6250000000000000  0.5000000000000000  0.0018699999999967   F   F   F
  0.7500000000000000  0.3333300050000005  0.0018699999999967   F   F   F
  0.8750000000000000  0.5000000000000000  0.0018699999999967   F   F   F
  0.0000000000000000  0.6666700239999983  0.0018699999999967   F   F   F
  0.1250000000000000  0.8333299760000017  0.0018699999999967   F   F   F
  0.2500000000000000  0.6666700239999983  0.0018699999999967   F   F   F
  0.3750000000000000  0.8333299760000017  0.0018699999999967   F   F   F
  0.5000000000000000  0.6666700239999983  0.0018699999999967   F   F   F
  0.6250000000000000  0.8333299760000017  0.0018699999999967   F   F   F
  0.7500000000000000  0.6666700239999983  0.0018699999999967   F   F   F
  0.8750000000000000  0.8333299760000017  0.0018699999999967   F   F   F
  0.0000000000000000  0.2222200040000004  0.0864100009999973   F   F   F
  0.1250000000000000  0.0555599999999998  0.0864100009999973   F   F   F
  0.2500000000000000  0.2222200040000004  0.0864100009999973   F   F   F
  0.3750000000000000  0.0555599999999998  0.0864100009999973   F   F   F
  0.5000000000000000  0.2222200040000004  0.0864100009999973   F   F   F
  0.6250000000000000  0.0555599999999998  0.0864100009999973   F   F   F
  0.7500000000000000  0.2222200040000004  0.0864100009999973   F   F   F
  0.8750000000000000  0.0555599999999998  0.0864100009999973   F   F   F
  0.0000000000000000  0.5555599930000028  0.0864100009999973   F   F   F
  0.1250000000000000  0.3888899980000033  0.0864100009999973   F   F   F
  0.2500000000000000  0.5555599930000028  0.0864100009999973   F   F   F
  0.3750000000000000  0.3888899980000033  0.0864100009999973   F   F   F
  0.5000000000000000  0.5555599930000028  0.0864100009999973   F   F   F
  0.6250000000000000  0.3888899980000033  0.0864100009999973   F   F   F
  0.7500000000000000  0.5555599930000028  0.0864100009999973   F   F   F
  0.8750000000000000  0.3888899980000033  0.0864100009999973   F   F   F
  0.0000000000000000  0.8888900279999987  0.0864100009999973   F   F   F
  0.1250000000000000  0.7222200040000004  0.0864100009999973   F   F   F
  0.2500000000000000  0.8888900279999987  0.0864100009999973   F   F   F
  0.3750000000000000  0.7222200040000004  0.0864100009999973   F   F   F
  0.5000000000000000  0.8888900279999987  0.0864100009999973   F   F   F
  0.6250000000000000  0.7222200040000004  0.0864100009999973   F   F   F
  0.7500000000000000  0.8888900279999987  0.0864100009999973   F   F   F
  0.8750000000000000  0.7222200040000004  0.0864100009999973   F   F   F
  0.8685552047172167  0.2843688302060183  0.1707672784933180   T   T   T
 -0.0075188682676536  0.4512783060817451  0.1709716380513555   T   T   T
  0.1181681110773113  0.6186051095545039  0.1706532994908818   T   T   T
  0.1200255928864919  0.9511873725517207  0.1711368856183120   T   T   T
 -0.0045463548226809  0.1185414621111994  0.1708629862024938   T   T   T
  0.7436620318055929  0.7842715165842216  0.1722504674902018   T   T   T
  0.1210285101826184  0.2861427877469063  0.1738823419173377   T   T   T
 -0.0061194507245851  0.7849844124188452  0.1718471999721767   T   T   T
  0.2437465765336216  0.7850861572083273  0.1715146409082633   T   T   T
  0.8680156160377046  0.9496402020279257  0.1725486355519237   T   T   T
  0.3696965981814625  0.9504610717178497  0.1715323280522029   T   T   T
  0.8680680396888256  0.6180795531723530  0.1714378047477768   T   T   T
  0.2439549601988868  0.1184752473675799  0.1714359047657038   T   T   T
  0.4931303814281727  0.1174213808873455  0.1716473155238926   T   T   T
  0.6189811606707037  0.9508023372747985  0.1727033248037778   T   T   T
  0.2428299634455088  0.4510510235684736  0.1702123220697348   T   T   T
  0.7436520786278077  0.1160035332231850  0.1719647314799490   T   T   T
  0.7423327755064967  0.4520780086676909  0.1722448110763657   T   T   T
  0.6181619469997680  0.2837721669310793  0.1720049247511685   T   T   T
  0.3698124146883869  0.2853096705740955  0.1727636370937397   T   T   T
  0.3675394541091230  0.6198093905282398  0.1718939548153092   T   T   T
  0.4932168896190350  0.7819930246778207  0.1736611905949705   T   T   T
  0.4951588821213538  0.4519354011863967  0.1709660427023487   T   T   T
  0.6172985413160870  0.6175631241403653  0.1736067569133776   T   T   T
 -0.0122226765188972  0.0176877878452837  0.2565552601521967   T   T   T
  0.1081568890688426  0.5185870481607178  0.2561456490207209   T   T   T
  0.8600235039756924  0.8506340647095212  0.2605322866770058   T   T   T
  0.2306880937154916  0.3491840561827614  0.2621908562253930   T   T   T
  0.8620406657429828  0.1839001377845978  0.2571419466562856   T   T   T
  0.6062712655772131  0.8489119598427621  0.2585681898949768   T   T   T
  0.7390397579177141  0.3484460978008043  0.2574687336280435   T   T   T
  0.2319768184339893  0.6843249613859399  0.2582027190763175   T   T   T
  0.1125325578301783  0.8511719431536741  0.2582626912694118   T   T   T
  0.7363008564178063  0.6846156794173158  0.2581900056507289   T   T   T
 -0.0147594356283464  0.6841996887265180  0.2575402806109433   T   T   T
 -0.0158724459570625  0.3499747257557627  0.2586404342871094   T   T   T
  0.2357367969007943  0.0170731824994436  0.2584993075862848   T   T   T
  0.8634389519852006  0.5168223579017305  0.2587282372026072   T   T   T
  0.4831370931194175  0.0168880606491680  0.2592023238044827   T   T   T
  0.3593888398097789  0.8502884165741658  0.2594045711534192   T   T   T
  0.6103137483257359  0.1834053240120232  0.2589310050424203   T   T   T
  0.3606113729918666  0.1825424020573145  0.2587000763411660   T   T   T
  0.1110132242144622  0.1820588449756543  0.2599679587909445   T   T   T
  0.7331232823559011  0.0188540963663405  0.2609711377788865   T   T   T
  0.3589877971079140  0.5137520752517716  0.2534414653687617   T   T   T
  0.6157207847272391  0.5175145217800527  0.2618379575962930   T   T   T
  0.4871406835795571  0.3482080215129243  0.2599559282680211   T   T   T
  0.4786858202286121  0.6801778970824607  0.2671127632494613   T   T   T
  0.6496976161015795  0.7872938883926082  0.3914803159533691   T   T   T
  0.7423670916385412  0.7032432639101973  0.4078508854778383   T   T   T
  0.0931322442785327 -0.0146422392519314  0.4173767138044930   T   T   T
  0.1160106095017214  0.0595377349214849  0.4617804343965407   T   T   T
  0.7463835450353029  0.8445497028493595  0.7592301234754744   T   T   T
  0.6048085136956287  0.8410990504522391  0.7588038039140538   T   T   T
  0.6891270936647963  0.6047032687382594  0.8607501308257819   T   T   T
  0.7203730746281747  0.6096880822809696  0.9193163454121891   T   T   T
  0.3642329293784158  0.1017252586055144  0.7695711352448875   T   T   T
  0.3033405594344925  0.0871822635386559  0.8218689616448963   T   T   T
  0.0208226472379616  0.4873251549964711  0.9104283001411265   T   T   T
  0.1476227004160166  0.4449753843678475  0.9017053057208810   T   T   T
  0.1357151847898709  0.7328509991642012  0.8047783744824276   T   T   T
  0.1846447603269591  0.8297966333469553  0.7847533103500954   T   T   T
  0.5280358767444607  0.1350094209906307  0.3566412710473031   T   T   T
  0.4063214687597650  0.1493670084731225  0.3868656848298257   T   T   T
  0.6473374104600842  0.3332898455595950  0.8508024123850962   T   T   T
  0.7876565739894765  0.3408782345291361  0.8529906484781480   T   T   T
  0.7049847226698951  0.2424049227547150  0.7870867030217379   T   T   T
  0.7243184612452249  0.2037143754083067  0.7306983607264800   T   T   T
  0.0141191508235652  0.1508405792508638  0.8681164300741082   T   T   T
  0.0279548896037305  0.2125643072347538  0.9177121539287190   T   T   T
  0.4801005194001520  0.5748251919987286  0.6681930572685079   T   T   T
  0.3448623653771266  0.6069754070701979  0.6601598611424869   T   T   T
  0.5011969208193552  0.4298968235558539  0.5221000503244029   T   T   T
  0.5045526493505300  0.3927677991680462  0.4662966162688590   T   T   T
  0.5115419607220817  0.8882291677778658  0.3646163995774634   T   T   T
  0.5522395231321794  0.9209084660843087  0.4187899249456333   T   T   T
  0.4790032405378462  0.8150363464779152  0.5862633648122063   T   T   T
  0.5468865610153819  0.8875300183040477  0.6206229544194657   T   T   T
  0.2407696788062358  0.1764828722799588  0.3469546585595110   T   T   T
  0.2054245869516666  0.1194170867858774  0.3951874921739323   T   T   T
  0.6181155597570617  0.6193914955342448  0.4682688567239893   T   T   T
  0.5082279582996891  0.5509989073156862  0.4786983702514734   T   T   T
  0.0541141803242364  0.3226998397567409  0.6961600499813955   T   T   T
  0.1582007166359369  0.3988820974773106  0.6959100972264408   T   T   T
  0.9516455915452035  0.5223256512900858  0.7796322228555396   T   T   T
  0.0407458970195014  0.4539593747498694  0.7511829984920142   T   T   T
  0.9766693583300978  0.1093612370073231  0.3971105102970249   T   T   T
  0.9528265428554125  0.1624430313621567  0.3461372501923790   T   T   T
  0.6282484956668414  0.9334258216763697  0.9213813246250581   T   T   T
  0.6534826031972260 -0.0259103782392749  0.8679286067385389   T   T   T
  0.4841732463691921  0.4082505004769019  0.8870479989758647   T   T   T
  0.4513347187853519  0.3807920167490063  0.8305276753830525   T   T   T
  0.7150951999647844  0.1366190548608632  0.8655996728342621   T   T   T
  0.7067676831708922  0.1072874649571712  0.8100871240367024   T   T   T
  0.2709822442449762  0.9103130931186760  0.5178562595929308   T   T   T
  0.2562211336445075  0.8124163578930969  0.4955887879432422   T   T   T
  0.1169069510606573  0.5841638720774149  0.4137247764637618   T   T   T
  0.0310836605528900  0.4973348820261281  0.4079642543893135   T   T   T
  0.0784137948486580  0.7066280128478732  0.4481640441362117   T   T   T
  0.2160257993654205  0.7208882444204245  0.4289531565787281   T   T   T
  0.8762545798963357  0.2027066720328526  0.6754311781501218   T   T   T
  0.7802678926979814  0.2669220210139420  0.6487525690489954   T   T   T
  0.1025905098078417  0.3126870477133575  0.8566387483056880   T   T   T
  0.0901963989068727  0.4073628711313835  0.8260359580148695   T   T   T
  0.6808818855186263  0.5982896372526031  0.6405492231229997   T   T   T
  0.5680714159770923  0.6265696931731723  0.6055870021576600   T   T   T
  0.4258768941905527  0.9580554243135619  0.5561224661635870   T   T   T
  0.4572095598399226 -0.0000694914581501  0.5023274297763379   T   T   T
  0.2488478574929351  0.7237142961425764  0.6302139809366293   T   T   T
  0.1988091137029598  0.6367951062729281  0.5962655322365482   T   T   T
  0.4246073179321936  0.1555619017816509  0.6796713674043613   T   T   T
  0.4903356526565557  0.1187172253172495  0.6309772376704934   T   T   T
  0.8713896311607727  0.1876669894551568  0.5257392890560194   T   T   T
  0.9844496009728302  0.2584086044638457  0.5319667371550062   T   T   T
  0.8048979943968274  0.0675768540769466  0.3538776767039426   T   T   T
  0.7905406717059369  0.9577360441798684  0.3474742313109939   T   T   T
  0.8403382133109366  0.6608002657314042  0.7730163696974488   T   T   T
  0.7447547219173692  0.5792648723848161  0.7779625320391109   T   T   T
  0.8197903188285279  0.6204060377921911  0.6976164232158008   T   T   T
  0.8731834597863519  0.5812496498942525  0.6475880258437903   T   T   T
  0.1760230633541085  0.4703875417844283  0.4675288858391239   T   T   T
  0.3015804899695204  0.4447998463223037  0.4944275561280664   T   T   T
  0.6731663647824508  0.9030523781352734  0.6880170040539223   T   T   T
  0.7543507690713512  0.8802752149226862  0.6411436524349774   T   T   T
  0.5333175349667173  0.6038744662441065  0.8015425788428807   T   T   T
  0.5740159237360909  0.5085490504470270  0.8272283962232322   T   T   T
  0.6447057507625814  0.0369049469579812  0.4752182108814915   T   T   T
  0.5496700986838726  0.0680294446966210  0.4331312273303268   T   T   T
  0.0550083381116116  0.8632978741667233  0.5301773916622537   T   T   T
  0.9471905711889499  0.8438440695991051  0.5686246199591830   T   T   T
  0.6680755570672033  0.3069849339710687  0.4312928201389193   T   T   T
  0.5479278961924996  0.2536556169310866  0.4182867360268316   T   T   T
  0.3142080270586315  0.7402328478169209  0.9031648200514709   T   T   T
  0.1772174519251961  0.7361090071269590  0.9161888734634275   T   T   T
  0.8038115404520592  0.7350579930342740  0.8879776999079786   T   T   T
  0.7557639918687464  0.8397290049811434  0.8846952204895084   T   T   T
  0.1935304283171954  0.6177449240790484  0.8527850755213766   T   T   T
  0.1327549996504324  0.5723192047474194  0.8039744679033940   T   T   T
  0.8238583155137951  0.0196348380391330  0.5278583029843797   T   T   T
  0.7273137592301075  0.0780527749600055  0.5575091811939238   T   T   T
  0.3271734591083567  0.3697814289076197  0.6664868824970126   T   T   T
  0.3433857690895761  0.4706659973418837  0.6917087598181493   T   T   T
  0.3402079880075104  0.6420873100473354  0.7922525876564839   T   T   T
  0.4113034660642523  0.6311950673073246  0.7421414888148442   T   T   T
  0.4084371633399704  0.2386875220960034  0.7599758010842284   T   T   T
  0.5336289621120051  0.1861841826178270  0.7517598405348683   T   T   T
  0.4803782292919728  0.8585721986975586  0.8793994660330421   T   T   T
  0.3497248493863621  0.8922320812180473  0.8911438767635042   T   T   T
  0.1970643157348297  0.1730154186025169  0.8846584550620384   T   T   T
  0.3285672756855297  0.1688130741217482  0.9088515463570844   T   T   T
  0.8855802231958758  0.4384346857222892  0.6131953177919085   T   T   T
  0.9939304699694549  0.4500779403341197  0.6510868839593438   T   T   T
  0.0435041213000841  0.1539283001430782  0.7140185445182039   T   T   T
  0.0762250527014194  0.1714397669601914  0.6585442527609474   T   T   T
  0.0430664915142400  0.5369013137512383  0.5824833113866140   T   T   T
  0.1450274689002174  0.5282386299663023  0.5404445204956841   T   T   T
  0.3364610158466795  0.3701185211175052  0.7560325575946876   T   T   T
  0.2727823780723990  0.3438829302551955  0.8079827233650663   T   T   T
  0.8175908470693567  0.3146925295799003  0.5707894096425855   T   T   T
  0.6992391559608931  0.3671659528962777  0.5910890246143856   T   T   T
  0.2798228734628415  0.3059085041231762  0.5897170511525743   T   T   T
  0.3753827445979432  0.2463413696022960  0.6206143473133202   T   T   T
  0.0139889127362168  0.6444738641171202  0.5187077926442687   T   T   T
  0.9635196364650115  0.7482579067442826  0.5096631500452207   T   T   T
  0.4988473637834251  0.6714360375594690  0.5340376458793280   T   T   T
  0.4000632366269714  0.6814154040287154  0.5782260260056783   T   T   T
  0.3236235659950314  0.9434673444879683  0.7780880174572515   T   T   T
  0.3640913898864400  0.8493250990264721  0.8021346503967722   T   T   T
  0.9782685964269516  0.8610286797820111  0.8927544797502116   T   T   T
  0.0759887094517408  0.8562534570698238  0.8493824344808377   T   T   T
  0.3524400657389726  0.8561360813535714  0.6460940677874139   T   T   T
  0.3146183944036486  0.8370184874981869  0.7026561250906019   T   T   T
  0.8520449005196069  0.7883713967998576  0.8194983133003167   T   T   T
  0.9536993830969198  0.7917759305947982  0.7787383593081819   T   T   T
  0.1677388613927341  0.3389593418840293  0.5219082413521535   T   T   T
  0.1768881561289958  0.2273747844118987  0.5267106016010269   T   T   T
  0.1252736826222404  0.8834046931599591  0.3483163169077785   T   T   T
  0.1010708950919494  0.8127371710285483  0.3934918477205078   T   T   T
  0.5664419607257803  0.4715863968806037  0.6008285643369498   T   T   T
  0.4839831273288894  0.3785591253762638  0.5956497124188918   T   T   T
  0.4205663477482869  0.6993667662860823  0.4558364806027519   T   T   T
  0.4088408828247320  0.7955046608039790  0.4287613024086653   T   T   T
  0.8074572156261591  0.8068969067102725  0.3588717227750028   T   T   T
  0.9460414039699231  0.8613640558053398  0.3562696782282120   T   T   T
  0.6659590335634957  0.0245035229808867  0.6306559949630072   T   T   T
  0.7043667544902492  0.1299988686749053  0.6360937777760266   T   T   T
  0.2528774364658299  0.0419249844809034  0.9040756153869887   T   T   T
  0.1650637604707823  0.9494413310451246  0.9096885530010420   T   T   T
  0.9875130895129401 -0.0034431542019133  0.8573670169883535   T   T   T
  0.8722042671832690  0.0599474064784254  0.8430528430796647   T   T   T
  0.8807349584742175  0.7580495917160912  0.6445451493268350   T   T   T
  0.9559088644841981  0.8539698327359380  0.6515423997686870   T   T   T
  0.0707895393605718  0.9660242138315416  0.7020193424728522   T   T   T
  0.1537737720004272  0.8962803300077724  0.6703924962158255   T   T   T
  0.8060452616499710  0.5646712403824257  0.4275434421549861   T   T   T
  0.8473145701771110  0.6409624102168578  0.4670825830616244   T   T   T
  0.8783466081652113  0.4690791210204205  0.3549552175095939   T   T   T
  0.8616447036061757  0.4051945952527780  0.4032160804855912   T   T   T
  0.0253938351390396  0.0538043681023860  0.7813003685678732   T   T   T
  0.1602090554538794  0.0613218755229978  0.7631150909059872   T   T   T
  0.8591067308700860  0.2453750390964430  0.4084674368441422   T   T   T
  0.8590368095647302  0.2876938777284753  0.4627924905887355   T   T   T
  0.2682590137008410  0.0687991110746924  0.5195444630960737   T   T   T
  0.1607003132595415  0.0903998605904090  0.5538826436204475   T   T   T
  0.2493079252547691  0.0958781792662834  0.6296110681605022   T   T   T
  0.1344100876368774  0.0298845378073799  0.6360977457315177   T   T   T
  0.8497546750956174  0.4261730230618856  0.9204159269297628   T   T   T
  0.8356970504506421  0.5115080486601017  0.8846782322430558   T   T   T
  0.4631105227738707  0.3479483722903415  0.3554729952694691   T   T   T
  0.6600742028507259  0.4241703647125542  0.3519087021572169   T   T   T
  0.6673201757881585  0.5955789579928238  0.3513299864856876   T   T   T
  0.2784094628999824  0.5994964855930277  0.3496778108282862   T   T   T
  0.4845240646432946  0.6806210985740925  0.3625048765933491   T   T   T
  0.3697060814737811  0.5492632750707244  0.3967375462833728   T   T   T
  0.4702258455903005  0.4095928475099440  0.3316617690357938   T   T   T
  0.5824340517243349  0.4621863910484807  0.3376871880971928   T   T   T
  0.3569198842264917  0.4667432504383422  0.3301067471162022   T   T   T
  0.5850683143444509  0.5614450270969984  0.3388739051279524   T   T   T
  0.3627357578179602  0.5614691600647211  0.3559742497333593   T   T   T
  0.4738321029909512  0.6176731115389070  0.3400079816197289   T   T   T
  0.7187641016492092  0.7481003260487438  0.3806996723213496   T   T   T
  0.0925318431720039  0.0520751898647978  0.4260777886785032   T   T   T
  0.6728646334335051  0.8801747438730748  0.7496632511867428   T   T   T
  0.7565517203719854  0.6154260413102908  0.8856531256888401   T   T   T
  0.3053130310519631  0.0605192260977264  0.7879020855348177   T   T   T
  0.1082813022668824  0.4984789063012605  0.9188676117033792   T   T   T
  0.1109779308317728  0.7988128805032463  0.7985571427334444   T   T   T
  0.4974573323456844  0.1455068856593247  0.3905256705416421   T   T   T
  0.7225571434956524  0.2974134813215711  0.8447193713223611   T   T   T
  0.6823701389915321  0.1921235672354858  0.7631844055359648   T   T   T
  0.0554978061059664  0.2071984895547538  0.8827445902609840   T   T   T
  0.3989274152872592  0.5752877524034732  0.6847572587297686   T   T   T
  0.4666331884786205  0.4412179963613724  0.4881698389421818   T   T   T
  0.5287106241308396  0.8654650690205958  0.3983351338346694   T   T   T
  0.4685300226769976  0.8761339187321325  0.6031116493834248   T   T   T
  0.2634657947703163  0.1657984936920023  0.3819337801174819   T   T   T
  0.5310587931151655  0.6186893033921362  0.4766585569615218   T   T   T
  0.0683206821764925  0.3908089967095349  0.6981608562669641   T   T   T
  0.0304664456027638  0.4898751107039405  0.7828994394606389   T   T   T
  0.9129006312453176  0.1426450987245538  0.3772808665725949   T   T   T
  0.6309261254530132  0.9159483205102505  0.8855796544597474   T   T   T
  0.5174555897166276  0.4029706910017005  0.8534099545889280   T   T   T
  0.7226232689966000  0.0818121398464761  0.8441848009128063   T   T   T
  0.2117778576862487  0.8592523947558655  0.5147908575510748   T   T   T
  0.1127211465032295  0.5163985055656281  0.4184961348150534   T   T   T
  0.1309750476317562  0.7123187504299991  0.4177213450028280   T   T   T
  0.7873535795022248  0.2122346760750463  0.6715538257254784   T   T   T
  0.1471065428041064  0.3692614199420616  0.8462562562412141   T   T   T
  0.5993653645386235  0.5775976940592344  0.6287990317651747   T   T   T
  0.3912971683421013  0.9919105486448327  0.5270589825398385   T   T   T
  0.2697622579568093  0.6642260004790687  0.6142291561720292   T   T   T
  0.4113682119348238  0.1410637777408855  0.6437206226394074   T   T   T
  0.8966732833665666  0.2534542488059137  0.5241291366879057   T   T   T
  0.7462764080549026  0.0184324092984768  0.3427251637213575   T   T   T
  0.8238876686956643  0.5951894419343889  0.7628868623384744   T   T   T
  0.8231140176175977  0.6332983902372208  0.6610661443489459   T   T   T
  0.2131014766162685  0.4479405392560609  0.4998378018802802   T   T   T
  0.6787161780634451  0.9131390075587185  0.6509899655833138   T   T   T
  0.6059267775674544  0.5685344653023933  0.8146599763978860   T   T   T
  0.5720954609287178  0.0168878376273262  0.4568115946544641   T   T   T
  0.9663101927020394  0.8543936648395731  0.5329780057532696   T   T   T
  0.5792241587558995  0.3136381547583266  0.4307287056628567   T   T   T
  0.2480864662175404  0.6959688541459494  0.9120218411619276   T   T   T
  0.8284967861542768  0.7999080606247844  0.8801694087831841   T   T   T
  0.1861198187346101  0.6233586257370134  0.8163924756914980   T   T   T
  0.7720575423292220  0.0741884036910256  0.5249381692631531   T   T   T
  0.3078802507143121  0.4069470080384389  0.6970713710443882   T   T   T
  0.4186725224094061  0.6566367665364484  0.7766214222354750   T   T   T
  0.4451043207170179  0.1831904732854870  0.7437370147088262   T   T   T
  0.3946654221831377  0.8402250835477489  0.8757186312966193   T   T   T
  0.2784370530561885  0.1416207676621763  0.8821745828368985   T   T   T
  0.9475734609009628  0.4839199456602506  0.6247043595855769   T   T   T
  0.0298470841500361  0.1996943157278721  0.6865115102748967   T   T   T
  0.0982505932459062  0.5741441213076932  0.5607396896361949   T   T   T
  0.3502504018131681  0.3392863203213575  0.7891519814957215   T   T   T
  0.7831998593127447  0.3484629425482155  0.5999707439965124   T   T   T
  0.3512521305852641  0.3115434214440196  0.6117440174284561   T   T   T
  0.9737191890251499  0.6851164274384323  0.4935278807117955   T   T   T
  0.4842481405742908  0.6969174385122646  0.5681534318919821   T   T   T
  0.3253184336683587  0.8750270451059511  0.7720223658324504   T   T   T
  0.0504889553733453  0.8934344346991234  0.8797904241008296   T   T   T
  0.2847550412387319  0.8345177597524430  0.6679873431848623   T   T   T
  0.8665845592434418  0.7784706760017994  0.7827320800423816   T   T   T
  0.1455387594612991  0.2842460340003514  0.5429788928359526   T   T   T
  0.0778598628377680  0.8759396198879120  0.3792893381516180   T   T   T
  0.5549128081283763  0.4122645776692836  0.5820615941411553   T   T   T
  0.3611451373874081  0.7481327462828811  0.4467473386008863   T   T   T
  0.8608659860872934  0.8592112148269625  0.3417866489822460   T   T   T
  0.6533816918080276  0.0874830514290706  0.6156147173636833   T   T   T
  0.2451422057931241  0.9771024962034810  0.9190805150515292   T   T   T
  0.9623873814433347  0.0561691561891507  0.8415060979481988   T   T   T
  0.8912690133967600  0.8223677142546550  0.6322345777849455   T   T   T
  0.0768538054701658  0.9327809576487197  0.6696497381137501   T   T   T
  0.7763987538340775  0.6188377384689473  0.4468602802285849   T   T   T
  0.8754350965558986  0.4706830159491301  0.3916039492880046   T   T   T
  0.0756532145200372  0.0565893032305253  0.7505330307695891   T   T   T
  0.8301969874678783  0.2995340592871377  0.4280818019404188   T   T   T
  0.1877174482679581  0.0991592517956598  0.5187752795308898   T   T   T
  0.1628202274241107  0.0896532871260994  0.6213261827012876   T   T   T
  0.8803275763514892  0.4512082110778567  0.8883936700669393   T   T   T
  0.2546068475694001  0.4179123287440042  0.3321344721251693   T   T   T
 
  0.00000000E+00  0.00000000E+00  0.00000000E+00
  0.00000000E+00  0.00000000E+00  0.00000000E+00
  0.00000000E+00  0.00000000E+00  0.00000000E+00
  0.00000000E+00  0.00000000E+00  0.00000000E+00
  0.00000000E+00  0.00000000E+00  0.00000000E+00
  0.00000000E+00  0.00000000E+00  0.00000000E+00
  0.00000000E+00  0.00000000E+00  0.00000000E+00
  0.00000000E+00  0.00000000E+00  0.00000000E+00
  0.00000000E+00  0.00000000E+00  0.00000000E+00
  0.00000000E+00  0.00000000E+00  0.00000000E+00
  0.00000000E+00  0.00000000E+00  0.00000000E+00
  0.00000000E+00  0.00000000E+00  0.00000000E+00
  0.00000000E+00  0.00000000E+00  0.00000000E+00
  0.00000000E+00  0.00000000E+00  0.00000000E+00
  0.00000000E+00  0.00000000E+00  0.00000000E+00
  0.00000000E+00  0.00000000E+00  0.00000000E+00
  0.00000000E+00  0.00000000E+00  0.00000000E+00
  0.00000000E+00  0.00000000E+00  0.00000000E+00
  0.00000000E+00  0.00000000E+00  0.00000000E+00
  0.00000000E+00  0.00000000E+00  0.00000000E+00
  0.00000000E+00  0.00000000E+00  0.00000000E+00
  0.00000000E+00  0.00000000E+00  0.00000000E+00
  0.00000000E+00  0.00000000E+00  0.00000000E+00
  0.00000000E+00  0.00000000E+00  0.00000000E+00
  0.00000000E+00  0.00000000E+00  0.00000000E+00
  0.00000000E+00  0.00000000E+00  0.00000000E+00
  0.00000000E+00  0.00000000E+00  0.00000000E+00
  0.00000000E+00  0.00000000E+00  0.00000000E+00
  0.00000000E+00  0.00000000E+00  0.00000000E+00
  0.00000000E+00  0.00000000E+00  0.00000000E+00
  0.00000000E+00  0.00000000E+00  0.00000000E+00
  0.00000000E+00  0.00000000E+00  0.00000000E+00
  0.00000000E+00  0.00000000E+00  0.00000000E+00
  0.00000000E+00  0.00000000E+00  0.00000000E+00
  0.00000000E+00  0.00000000E+00  0.00000000E+00
  0.00000000E+00  0.00000000E+00  0.00000000E+00
  0.00000000E+00  0.00000000E+00  0.00000000E+00
  0.00000000E+00  0.00000000E+00  0.00000000E+00
  0.00000000E+00  0.00000000E+00  0.00000000E+00
  0.00000000E+00  0.00000000E+00  0.00000000E+00
  0.00000000E+00  0.00000000E+00  0.00000000E+00
  0.00000000E+00  0.00000000E+00  0.00000000E+00
  0.00000000E+00  0.00000000E+00  0.00000000E+00
  0.00000000E+00  0.00000000E+00  0.00000000E+00
  0.00000000E+00  0.00000000E+00  0.00000000E+00
  0.00000000E+00  0.00000000E+00  0.00000000E+00
  0.00000000E+00  0.00000000E+00  0.00000000E+00
  0.00000000E+00  0.00000000E+00  0.00000000E+00
  0.00000000E+00  0.00000000E+00  0.00000000E+00
  0.00000000E+00  0.00000000E+00  0.00000000E+00
  0.00000000E+00  0.00000000E+00  0.00000000E+00
  0.00000000E+00  0.00000000E+00  0.00000000E+00
  0.00000000E+00  0.00000000E+00  0.00000000E+00
  0.00000000E+00  0.00000000E+00  0.00000000E+00
  0.00000000E+00  0.00000000E+00  0.00000000E+00
  0.00000000E+00  0.00000000E+00  0.00000000E+00
  0.00000000E+00  0.00000000E+00  0.00000000E+00
  0.00000000E+00  0.00000000E+00  0.00000000E+00
  0.00000000E+00  0.00000000E+00  0.00000000E+00
  0.00000000E+00  0.00000000E+00  0.00000000E+00
  0.00000000E+00  0.00000000E+00  0.00000000E+00
  0.00000000E+00  0.00000000E+00  0.00000000E+00
  0.00000000E+00  0.00000000E+00  0.00000000E+00
  0.00000000E+00  0.00000000E+00  0.00000000E+00
  0.00000000E+00  0.00000000E+00  0.00000000E+00
  0.00000000E+00  0.00000000E+00  0.00000000E+00
  0.00000000E+00  0.00000000E+00  0.00000000E+00
  0.00000000E+00  0.00000000E+00  0.00000000E+00
  0.00000000E+00  0.00000000E+00  0.00000000E+00
  0.00000000E+00  0.00000000E+00  0.00000000E+00
  0.00000000E+00  0.00000000E+00  0.00000000E+00
  0.00000000E+00  0.00000000E+00  0.00000000E+00
  0.00000000E+00  0.00000000E+00  0.00000000E+00
  0.00000000E+00  0.00000000E+00  0.00000000E+00
  0.00000000E+00  0.00000000E+00  0.00000000E+00
  0.00000000E+00  0.00000000E+00  0.00000000E+00
  0.00000000E+00  0.00000000E+00  0.00000000E+00
  0.00000000E+00  0.00000000E+00  0.00000000E+00
  0.00000000E+00  0.00000000E+00  0.00000000E+00
  0.00000000E+00  0.00000000E+00  0.00000000E+00
  0.00000000E+00  0.00000000E+00  0.00000000E+00
  0.00000000E+00  0.00000000E+00  0.00000000E+00
  0.00000000E+00  0.00000000E+00  0.00000000E+00
  0.00000000E+00  0.00000000E+00  0.00000000E+00
  0.00000000E+00  0.00000000E+00  0.00000000E+00