POSCAR                                  
   1.00000000000000     
    11.0985002518000009    0.0000000000000000    0.0000000000000000
     0.0000000000000000   14.4173002242999999    0.0000000000000000
     0.0000000000000000    0.0000000000000000   26.7964000702000007
   Pt   H    C    O    K 
    96   170     6    81     4
Selective dynamics
Direct
  0.0000000000000000  0.0000000000000000  0.0018699999999967   F   F   F
  0.1250000000000000  0.1666699949999995  0.0018699999999967   F   F   F
  0.2500000000000000  0.0000000000000000  0.0018699999999967   F   F   F
  0.3750000000000000  0.1666699949999995  0.0018699999999967   F   F   F
  0.5000000000000000  0.0000000000000000  0.0018699999999967   F   F   F
  0.6250000000000000  0.1666699949999995  0.0018699999999967   F   F   F
  0.7500000000000000  0.0000000000000000  0.0018699999999967   F   F   F
  0.8750000000000000  0.1666699949999995  0.0018699999999967   F   F   F
  0.0000000000000000  0.3333300050000005  0.0018699999999967   F   F   F
  0.1250000000000000  0.5000000000000000  0.0018699999999967   F   F   F
  0.2500000000000000  0.3333300050000005  0.0018699999999967   F   F   F
  0.3750000000000000  0.5000000000000000  0.0018699999999967   F   F   F
  0.5000000000000000  0.3333300050000005  0.0018699999999967   F   F   F
  0.6250000000000000  0.5000000000000000  0.0018699999999967   F   F   F
  0.7500000000000000  0.3333300050000005  0.0018699999999967   F   F   F
  0.8750000000000000  0.5000000000000000  0.0018699999999967   F   F   F
  0.0000000000000000  0.6666700239999983  0.0018699999999967   F   F   F
  0.1250000000000000  0.8333299760000017  0.0018699999999967   F   F   F
  0.2500000000000000  0.6666700239999983  0.0018699999999967   F   F   F
  0.3750000000000000  0.8333299760000017  0.0018699999999967   F   F   F
  0.5000000000000000  0.6666700239999983  0.0018699999999967   F   F   F
  0.6250000000000000  0.8333299760000017  0.0018699999999967   F   F   F
  0.7500000000000000  0.6666700239999983  0.0018699999999967   F   F   F
  0.8750000000000000  0.8333299760000017  0.0018699999999967   F   F   F
  0.0000000000000000  0.2222200040000004  0.0864100009999973   F   F   F
  0.1250000000000000  0.0555599999999998  0.0864100009999973   F   F   F
  0.2500000000000000  0.2222200040000004  0.0864100009999973   F   F   F
  0.3750000000000000  0.0555599999999998  0.0864100009999973   F   F   F
  0.5000000000000000  0.2222200040000004  0.0864100009999973   F   F   F
  0.6250000000000000  0.0555599999999998  0.0864100009999973   F   F   F
  0.7500000000000000  0.2222200040000004  0.0864100009999973   F   F   F
  0.8750000000000000  0.0555599999999998  0.0864100009999973   F   F   F
  0.0000000000000000  0.5555599930000028  0.0864100009999973   F   F   F
  0.1250000000000000  0.3888899980000033  0.0864100009999973   F   F   F
  0.2500000000000000  0.5555599930000028  0.0864100009999973   F   F   F
  0.3750000000000000  0.3888899980000033  0.0864100009999973   F   F   F
  0.5000000000000000  0.5555599930000028  0.0864100009999973   F   F   F
  0.6250000000000000  0.3888899980000033  0.0864100009999973   F   F   F
  0.7500000000000000  0.5555599930000028  0.0864100009999973   F   F   F
  0.8750000000000000  0.3888899980000033  0.0864100009999973   F   F   F
  0.0000000000000000  0.8888900279999987  0.0864100009999973   F   F   F
  0.1250000000000000  0.7222200040000004  0.0864100009999973   F   F   F
  0.2500000000000000  0.8888900279999987  0.0864100009999973   F   F   F
  0.3750000000000000  0.7222200040000004  0.0864100009999973   F   F   F
  0.5000000000000000  0.8888900279999987  0.0864100009999973   F   F   F
  0.6250000000000000  0.7222200040000004  0.0864100009999973   F   F   F
  0.7500000000000000  0.8888900279999987  0.0864100009999973   F   F   F
  0.8750000000000000  0.7222200040000004  0.0864100009999973   F   F   F
  0.8772859035599107  0.2846814688157301  0.1717147381917852   T   T   T
  0.0035928885995260  0.4508304393943142  0.1716606498621040   T   T   T
  0.1279040225846300  0.6175196587521221  0.1723005565625668   T   T   T
  0.1280634506652081  0.9511699673051311  0.1714846117216737   T   T   T
  0.0017606706412808  0.1185392765974637  0.1713750178976663   T   T   T
  0.7526797237757793  0.7844332658305613  0.1715450611855350   T   T   T
  0.1276816859136322  0.2840890987047276  0.1714463686040238   T   T   T
  0.0033543096470779  0.7843461441507688  0.1717710962818079   T   T   T
  0.2531867544558993  0.7839204930230297  0.1717823708445936   T   T   T
  0.8773522124135232  0.9511948021288726  0.1714112270469606   T   T   T
  0.3775571306655608  0.9510535274577806  0.1717522910123282   T   T   T
  0.8783156578663074  0.6178296943375319  0.1715698876522160   T   T   T
  0.2528658930874791  0.1181012328906124  0.1718210100943662   T   T   T
  0.5026194868910211  0.1186935248783663  0.1718675707349167   T   T   T
  0.6270026408105738  0.9514593123325251  0.1712968518566534   T   T   T
  0.2531962809140376  0.4521751038899807  0.1724658122618771   T   T   T
  0.7514720590822253  0.1188656255426372  0.1717538262818421   T   T   T
  0.7536754380792755  0.4506380592304907  0.1714331175240791   T   T   T
  0.6255456382630428  0.2862030364038758  0.1735885800526696   T   T   T
  0.3787353708870422  0.2856946221904328  0.1725444807192049   T   T   T
  0.3778152595387071  0.6161153910648715  0.1737397347460872   T   T   T
  0.5017184087665392  0.7840684753581840  0.1713838734332395   T   T   T
  0.5018254100423554  0.4515747770899199  0.1729374357277289   T   T   T
  0.6278447320933777  0.6178531125950324  0.1712037384043228   T   T   T
  0.0050327789864876  0.0174832214643534  0.2574654677887436   T   T   T
  0.1298803207359663  0.5171308620809220  0.2593597939402195   T   T   T
  0.8804050430721787  0.8505259813130042  0.2586401770321112   T   T   T
  0.2526759996137087  0.3493157958833321  0.2567292167253285   T   T   T
  0.8799875789557987  0.1838486331421074  0.2592419659677356   T   T   T
  0.6299756423038504  0.8509885620184383  0.2578723690332912   T   T   T
  0.7573774371633143  0.3499043490325388  0.2590206725757186   T   T   T
  0.2563463334890850  0.6832011287762964  0.2590541882245853   T   T   T
  0.1310527730845853  0.8507069625166493  0.2586391511941927   T   T   T
  0.7563795398213442  0.6845568560898884  0.2584859924555953   T   T   T
  0.0061174844350552  0.6842875404708768  0.2593791723909089   T   T   T
  0.0051087727751460  0.3503808287631334  0.2586805471402572   T   T   T
  0.2553241955240226  0.0167697667261865  0.2591255890624787   T   T   T
  0.8815686119092332  0.5176876701074191  0.2582783033826548   T   T   T
  0.5045675930323945  0.0174310021539819  0.2585770520969494   T   T   T
  0.3804661942230732  0.8506533669087309  0.2596950610821692   T   T   T
  0.6299570456976035  0.1843320343450878  0.2597651286338062   T   T   T
  0.3800850420898418  0.1834101901632204  0.2587484470156593   T   T   T
  0.1296378120711061  0.1829227793254889  0.2593062683556337   T   T   T
  0.7545821202215538  0.0173936780414395  0.2582763711736837   T   T   T
  0.3816514968867024  0.5149585290747353  0.2674581816051181   T   T   T
  0.6331212215403494  0.5175550884269370  0.2563079224355650   T   T   T
  0.5060116576021494  0.3517498141898900  0.2655388310029014   T   T   T
  0.5055725727443909  0.6842341267094575  0.2582421196650760   T   T   T
  0.3910308940804598  0.7192412835882129  0.4998703927899549   T   T   T
  0.3908619850184232  0.7421872441464321  0.4419397530293800   T   T   T
  0.1815826591759368  0.9352859945465841  0.4667579233483422   T   T   T
  0.2766133834287473  0.8860420319306073  0.4303117321928417   T   T   T
  0.6998068020875167  0.6798557762770645  0.8802797376046255   T   T   T
  0.6038882381039518  0.6311325496853171  0.9143873150412167   T   T   T
  0.8134064481247927  0.6541506923428331  0.7614210526499277   T   T   T
  0.8307608373035960  0.7087151166533706  0.8145008621351478   T   T   T
  0.2786096745512749  0.2179896635046545  0.7722551372326960   T   T   T
  0.2715559288584369  0.1436468013914847  0.8151239988307196   T   T   T
  0.2102055465851728  0.5266103571530505  0.9070967808743051   T   T   T
  0.0704635259985442  0.5311486126975916  0.8975028614859144   T   T   T
  0.2188547953497104  0.8087211469651104  0.8228177993448984   T   T   T
  0.2880713446881890  0.8771471018984480  0.7853669240848361   T   T   T
  0.4658650235083774  0.1515016166772212  0.3471901868961595   T   T   T
  0.5139643626310541  0.1691376914383622  0.4026496696585851   T   T   T
  0.5743407258892707  0.1465973155104225  0.9201329563831474   T   T   T
  0.5684684444553724  0.2301420879235831  0.8822506374107250   T   T   T
  0.6535686673715951  0.0959511044848963  0.8491092099651477   T   T   T
  0.7741622737608818  0.1160496094827019  0.8205290612983652   T   T   T
  0.1022652018681394  0.2854647442830301  0.8635790129799068   T   T   T
  0.1265090136829954  0.3920158685658309  0.8770403953603614   T   T   T
  0.3689554573730320  0.4178623290597477  0.6002866132990599   T   T   T
  0.4666533110385435  0.4064032338157929  0.6431412553696684   T   T   T
  0.6732248114143666  0.3201341263549297  0.5501115216315337   T   T   T
  0.8086953911888879  0.2977776735090117  0.5692697030483916   T   T   T
  0.7801809590868160  0.8494738296156475  0.3989625340523427   T   T   T
  0.7621525314768310  0.8192725587305412  0.3418276870677654   T   T   T
  0.3653816661625985  0.8025694912052963  0.6920879077259959   T   T   T
  0.3617691663386717  0.9104087456208010  0.7037895208774463   T   T   T
  0.7642053615764692  0.8300679416945504  0.4763359643127648   T   T   T
  0.7570140494641676  0.9397762698090076  0.4748069482580053   T   T   T
  0.6499637495213748  0.1305170807614670  0.4638056885757280   T   T   T
  0.6885701365831305  0.2313219942530782  0.4438927326876933   T   T   T
  0.8371131587145515  0.4176874504099068  0.8417796318233663   T   T   T
  0.9640865756818227  0.3801107711996334  0.8227074520356381   T   T   T
  0.1030034645350872  0.6163157284720149  0.7440288036957566   T   T   T
  0.1218451368363634  0.5066288736304370  0.7390904964543946   T   T   T
  0.3060788376812589  0.2166431797311837  0.3798758558347639   T   T   T
  0.2180070475983015  0.2419144181455611  0.3370637226081175   T   T   T
  0.5367165369972687  0.8338455132694965  0.9011868145353014   T   T   T
  0.4221995027957188  0.8682624786718294  0.8725950960617723   T   T   T
  0.5100558737384336  0.3913736226809201  0.8277008959183388   T   T   T
  0.4152720678188627  0.3897812253124999  0.7832907908045884   T   T   T
  0.7908445158350117  0.9847484782859169  0.8625191527497347   T   T   T
  0.8358446337698356  0.9550903959333636  0.9168775004567955   T   T   T
  0.1818919158290727  0.7565854017022227  0.7447598914458666   T   T   T
  0.0519051198566639  0.7564859203980765  0.7208204991196955   T   T   T
  0.2746880536047994  0.5829438619308265  0.5190224889312300   T   T   T
  0.3031826559482531  0.5496906442808850  0.4643466594518216   T   T   T
 -0.0427428672700741  0.4192286768546580  0.3540954054265777   T   T   T
 -0.0091565178573611  0.4465620075979463  0.4110493395887182   T   T   T
  0.9321240927879748  0.1883089489990097  0.8430791092118535   T   T   T
  0.8598193964091269  0.2676227644946091  0.8151392568662855   T   T   T
  0.7859754832141056  0.4596986133345004  0.9205834690759034   T   T   T
  0.7157165106652077  0.5263621156014939  0.8835628964177056   T   T   T
  0.7379366410936417  0.7448168700384261  0.6040871924738296   T   T   T
  0.6114222474461628  0.6880700406853814  0.6041498415285916   T   T   T
  0.4499549192439454  0.8771678764741385  0.6279719179142181   T   T   T
  0.5622264856095252  0.8384968967193011  0.5960231601950697   T   T   T
  0.1334206096077260  0.7056197408299072  0.6542513051403299   T   T   T
  0.0735503744813672  0.6245391459714009  0.6243914625206387   T   T   T
  0.5357196204077297  0.2358233186975822  0.6408014257142306   T   T   T
  0.5476480765416917  0.1258869693808462  0.6345568070860683   T   T   T
  0.8741355738843087  0.1590166124705758  0.5817144384889426   T   T   T
  0.9731464430106765  0.2305045231182575  0.6031152235075160   T   T   T
  0.9624702951989323  0.9188793763842227  0.3343274544259741   T   T   T
  0.0457861853997084  0.9695759488557317  0.3733735834054894   T   T   T
  0.9487728921197238  0.8838274888712737  0.7287302527914100   T   T   T
  0.8741840423320095  0.7899767560993634  0.7439358521588449   T   T   T
  0.8893879274845260  0.7960473080729170  0.6580888147934089   T   T   T
  0.9600808654886852  0.7408012747196980  0.6169952028281481   T   T   T
  0.3084376993450593  0.4254997913284618  0.5213436529044282   T   T   T
  0.4103898028156856  0.3482872467633666  0.5324827159360956   T   T   T
  0.6154858946225772  0.9199307945756177  0.7566930099337889   T   T   T
  0.6524242199898596  0.0203995664401904  0.7756977979886138   T   T   T
  0.6692694230536174  0.7724922579194919  0.7799035197047749   T   T   T
  0.5593524704799626  0.8165251075733099  0.8113738066663522   T   T   T
  0.2116510473539113  0.0155520137005057  0.4021544906802258   T   T   T
  0.1936858025702219  0.0460642149522449  0.3450465068399529   T   T   T
  0.6841517426598718  0.7241886249456408  0.5244344546940726   T   T   T
  0.6039258011839882  0.7300812227898811  0.4769726739147593   T   T   T
  0.8542978719588007  0.0102246589187892  0.3783129764959402   T   T   T
  0.7876136052135068  0.0776316171845776  0.3424612479100730   T   T   T
  0.3647539377772756  0.6031331676442143  0.8577548698392858   T   T   T
  0.3629927647428078  0.6180954871870487  0.9176976889394457   T   T   T
  0.8629480028789466  0.7346083052970727  0.9096459665273531   T   T   T
  0.8194442081466898  0.8223524895230054  0.8795636428856548   T   T   T
  0.0340752769424339  0.5737166247750507  0.8234083352874403   T   T   T
  0.0435369836578145  0.6548497090268630  0.8625531563923544   T   T   T
  0.8668703117975907  0.0118707472875306  0.5858594684708957   T   T   T
  0.7438541953542290  0.0480304957256344  0.6113168187008792   T   T   T
  0.1440242489111350  0.3520067600605656  0.6713094002268815   T   T   T
  0.2561783829140733  0.4227810982312963  0.6666069190080571   T   T   T
  0.5263110282699756  0.6205668439748517  0.8298531437327351   T   T   T
  0.4696511431912489  0.5323311532809766  0.8037831504655426   T   T   T
  0.6261896716959946  0.4152729279210013  0.7598896820441394   T   T   T
  0.7653799410352856  0.3891201816926836  0.7630054442170667   T   T   T
  0.2145863665379217  0.6999758384131328  0.8837642912992282   T   T   T
  0.1306282423474178  0.7721940100374227  0.9103499026521724   T   T   T
  0.2847001767190910  0.1477767654846784  0.9054083720665285   T   T   T
  0.4123958616468081  0.1388897965637043  0.8793483029851845   T   T   T
  0.9369353078999794  0.5377919994356253  0.6632291986061390   T   T   T
  0.0575047492060186  0.4821288953495868  0.6524109464492084   T   T   T
  0.1498331717251329  0.2106119070271481  0.6414718231598051   T   T   T
  0.0533373317474814  0.2208746512567333  0.6845733210961286   T   T   T
  0.9302883997070066  0.5075292302994673  0.5744318095687407   T   T   T
  0.8294694742912039  0.4496983348291944  0.5483087285835035   T   T   T
  0.2374931314007467  0.3677256610274060  0.7420056325931252   T   T   T
  0.2181753174586738  0.3499371612375974  0.8006304550343800   T   T   T
  0.9278763135977031  0.5481306617489979  0.7393041762501750   T   T   T
  0.7928159887609203  0.5125223939417670  0.7279459225150293   T   T   T
  0.5640386684546775  0.2330914039374422  0.5028558984484106   T   T   T
  0.5295742655500526  0.2243372784089963  0.5627534571406666   T   T   T
 -0.0303765187871441  0.5100750040332771  0.4904476732726035   T   T   T
  0.0998576017609581  0.5289800669485681  0.4688961007612099   T   T   T
  0.4553890741190390  0.5589281659010792  0.6311166881693939   T   T   T
  0.4681546595410674  0.6520514349117312  0.6626726977261626   T   T   T
  0.3289854676605176  0.0435911649793932  0.7570813409062039   T   T   T
  0.4569229827794876  0.9928842301989704  0.7552491698490466   T   T   T
  0.1397169420151230  0.9608278735407696  0.8624828696492622   T   T   T
 -0.0063605506908386  0.9646834608701654  0.8622713917242660   T   T   T
  0.5062082967210842  0.7473795266229162  0.7378357476787507   T   T   T
  0.4213387067077747  0.6659749508662440  0.7476061485613897   T   T   T
  0.0567211285927862  0.9731800940246533  0.7798866018012834   T   T   T
  0.0140738015820537  0.0460416863363859  0.7403396769360694   T   T   T
  0.0026295357991507  0.1705063865085246  0.5196114325141830   T   T   T
  0.0362694016620031  0.0761703309895704  0.4920724490101014   T   T   T
  0.2104154180387770  0.7696138455044622  0.3873792752094060   T   T   T
  0.3240806443582256  0.7978810825871941  0.3560167500276823   T   T   T
  0.6478207255697965  0.3638729842685406  0.6843941210827564   T   T   T
  0.6636365414187816  0.3549551610496235  0.6254003374615851   T   T   T
  0.3697410169021367  0.6568529053709742  0.5835622320499233   T   T   T
  0.2328260226924696  0.6838225775707345  0.5778995928104274   T   T   T
  0.0250967933428024  0.9400192944256951  0.5276057909651964   T   T   T
  0.9618486793861978  0.9235065318765557  0.4760604183858964   T   T   T
  0.6288646143665757  0.0158101599869247  0.6863534393007727   T   T   T
  0.5850267407305246  0.9766366517764425  0.6330307815482424   T   T   T
  0.3115798240282719  0.0050041481764683  0.8822442832432914   T   T   T
  0.2798062244509599  0.9258822862496655  0.9203231639596691   T   T   T
  0.0639452795742146  0.1016638671144316  0.8712349704195255   T   T   T
  0.0288482020465432  0.1651606270000385  0.9179436894402335   T   T   T
  0.9450734030926714  0.8775184027627255  0.5984971157501612   T   T   T
  0.0484560422710546  0.9500160681447143  0.6130045596444167   T   T   T
  0.1210612991509235  0.9725630071237064  0.6899566268630639   T   T   T
  0.2206443561451047  0.9205958025412389  0.6588551048709360   T   T   T
  0.5835213635930471  0.0149738893691976  0.5067023546192218   T   T   T
  0.7141538674945896  0.0417883695356739  0.5291575862789433   T   T   T
  0.8159285189499680  0.3295831583846873  0.4818501212498013   T   T   T
  0.8494936460286540  0.3471066369723544  0.4248847420452617   T   T   T
  0.9703002020137830  0.1822120616983082  0.7657562979163233   T   T   T
  0.1106168647097185  0.1605138645792659  0.7571077186669597   T   T   T
  0.0624960190569022  0.7309756773111169  0.3438138847927876   T   T   T
  0.0300199651140931  0.8152878421019467  0.3780758458763704   T   T   T
  0.3783502224172702  0.9650565094310376  0.4972757721811007   T   T   T
  0.4492457546672897  0.9529377345755423  0.5492141128454203   T   T   T
  0.3420814826433264  0.1483101426308489  0.6300701046340430   T   T   T
  0.2324304981721046  0.0748920273874600  0.6360960545847077   T   T   T
  0.5149991702264752  0.3573681137265978  0.9142717291509108   T   T   T
  0.6349423294038108  0.3870294948994109  0.8872408924534712   T   T   T
  0.4263220716295349  0.3249932205365573  0.3511899530406704   T   T   T
  0.6513979345575178  0.3424303178412568  0.3647548254368083   T   T   T
  0.7053238262295667  0.4958533704634225  0.3384952632315979   T   T   T
  0.4153043743467170  0.5224900141344386  0.4160377504997874   T   T   T
  0.5833822071403014  0.6193426063277676  0.4085944759577344   T   T   T
  0.2619617811210915  0.3791880075922046  0.3608651673634727   T   T   T
  0.3738160173918497  0.6099000299680648  0.3728323314277358   T   T   T
  0.5804934205249217  0.6215468842138772  0.3429049516803802   T   T   T
  0.7153450394475168  0.4916625026042022  0.4040637496355169   T   T   T
  0.5556037505854790  0.3832954267670703  0.4123096034441568   T   T   T
  0.4752399800880270  0.3883199457387488  0.3409801542944684   T   T   T
  0.5867122281547182  0.3976362497950394  0.3737829933935920   T   T   T
  0.3903598946410815  0.4702110500926024  0.3444553922253661   T   T   T
  0.6501244126301470  0.4917346978063016  0.3730486066118670   T   T   T
  0.4325566138786475  0.5493977660129672  0.3780125538802865   T   T   T
  0.5650343251712457  0.5763249769246477  0.3755980114272628   T   T   T
  0.4424284807763914  0.7224841196861962  0.4699611247134516   T   T   T
  0.2635363102255081  0.9421244524853027  0.4514532153409470   T   T   T
  0.6405846198055197  0.6272386834950812  0.8808113400892253   T   T   T
  0.8003800145007077  0.7136386282651872  0.7799062307434383   T   T   T
  0.2563933647089232  0.1521759739738484  0.7787013180060546   T   T   T
  0.1340224493585827  0.4919934527397640  0.9156386753196663   T   T   T
  0.2496761090649627  0.8160225218644903  0.7885821363991500   T   T   T
  0.4454423006123522  0.1433183521502951  0.3828528773349847   T   T   T
  0.5576760103639408  0.1610645964248501  0.8843024620118064   T   T   T
  0.7159332343965635  0.0645925809967473  0.8280964094838414   T   T   T
  0.1125387086892585  0.3479823461341752  0.8488816135165324   T   T   T
  0.3923902694831023  0.4415431155993533  0.6341106006215422   T   T   T
  0.7471065141226697  0.3483791154763469  0.5647866162857077   T   T   T
  0.7319111227255808  0.8099960008663998  0.3761217534431620   T   T   T
  0.3527745040395443  0.8640470092042505  0.6760001161318301   T   T   T
  0.8073352567819232  0.8865598460832291  0.4635151588148670   T   T   T
  0.6174269721519454  0.1904488515988572  0.4503103543005857   T   T   T
  0.8773270951523391  0.3833956858830666  0.8138050117032654   T   T   T
  0.0777532484656377  0.5537977353035740  0.7580222553154874   T   T   T
  0.2360719877410325  0.2574324292395392  0.3725132480409819   T   T   T
  0.4959463536525657  0.8299970350855400  0.8688704548024084   T   T   T
  0.4935265939165504  0.4182021598062035  0.7938959692126107   T   T   T
  0.8444002231268795  0.9398314774393035  0.8810125441936105   T   T   T
  0.1289583813306161  0.7201510565232455  0.7211824296816054   T   T   T
  0.2566370058248197  0.5324662486390767  0.4938337782610287   T   T   T
  0.9555488880243282  0.3975643473582293  0.3888294421075723   T   T   T
  0.8763757828916169  0.1992365992891983  0.8140957167245619   T   T   T
  0.7500166756817341  0.4617740765475324  0.8866555148158288   T   T   T
  0.6564989671280309  0.7399724800512674  0.5886513957778796   T   T   T
  0.5098207710854460  0.8939650507404212  0.6013391090239928   T   T   T
  0.1075000584261159  0.6883170931618483  0.6198770299283326   T   T   T
  0.5000428529618074  0.1815216334559612  0.6232416791020914   T   T   T
  0.9192565798421867  0.2178209607705256  0.5741254341563756   T   T   T
  0.9745779868437783  0.9258713972469698  0.3710750575809161   T   T   T
  0.9232446652124811  0.8207560474201893  0.7173742267769810   T   T   T
  0.8863663731391344  0.7794494729484717  0.6216749013501682   T   T   T
  0.3296545911148550  0.3709648104061760  0.5423448547648151   T   T   T
  0.6105203819806476  0.9875013599988203  0.7476557390249008   T   T   T
  0.5946780392682255  0.8108835292239154  0.7770235903476718   T   T   T
  0.1550125382404105  0.0458138578228618  0.3784047947261975   T   T   T
  0.6898859743253876  0.7282428749240312  0.4873595231238000   T   T   T
  0.7945847392627930  0.0616714486099546  0.3783419816955059   T   T   T
  0.3108911223066841  0.6070667356627366  0.8885014592657541   T   T   T
  0.8196953225129223  0.7528030829037917  0.8791814688063813   T   T   T
  0.0033907318327558  0.5940399726923611  0.8563027584575440   T   T   T
  0.7993869923427419  0.0580592949117447  0.5822361558196408   T   T   T
  0.1779149301781988  0.4123122116026747  0.6844392857895817   T   T   T
  0.4543302639388376  0.5996286493679905  0.8110625750566263   T   T   T
  0.7025526913348292  0.4123023142692754  0.7400248647063989   T   T   T
  0.1470142698058164  0.7445732652425483  0.8773970726489544   T   T   T
  0.3244232304673896  0.1227117518868629  0.8755230799244198   T   T   T
 -0.0028518089104187  0.5236983427849937  0.6368244218492761   T   T   T
  0.0807830397778391  0.2505816716137003  0.6526886970008307   T   T   T
  0.8873307594320341  0.5007790046997589  0.5423528749890341   T   T   T
  0.2764803110664738  0.3419590705791487  0.7724506994849313   T   T   T
  0.8511811784401202  0.5635479910739774  0.7215419350741916   T   T   T
  0.5354165180996227  0.2672425925077877  0.5335081675086193   T   T   T
  0.0144136430337035  0.5241241962170571  0.4586335119810033   T   T   T
  0.4777872896858406  0.6255019300905248  0.6284417814797620   T   T   T
  0.3678360752956820  0.9821073306197347  0.7536198191807539   T   T   T
  0.0681774824767346  0.9918211968381117  0.8473684459383920   T   T   T
  0.4463420012150564  0.7069435663729103  0.7199958184047536   T   T   T
  0.0313792614152703  0.9782104098016778  0.7443654610021304   T   T   T
  0.0524393407463612  0.1440070989245593  0.4923854917274429   T   T   T
  0.2969669817335796  0.7904438102901659  0.3908426310582544   T   T   T
  0.6052759967831030  0.3459069857973799  0.6530631191068390   T   T   T
  0.3066006195627293  0.6702114427837370  0.5579201366239592   T   T   T
  0.0363085070603782  0.9504687043541962  0.4908429575182006   T   T   T
  0.6260841132420965  0.0305401968580004  0.6497333490441363   T   T   T
  0.2883364751976800  0.9378421029506203  0.8840155517120496   T   T   T
  0.0466264357288253  0.1674669567278779  0.8817309334830010   T   T   T
  0.9828838169468587  0.9379876432497883  0.5880573380793970   T   T   T
  0.1585192390631344  0.9703660352281192  0.6560836743329793   T   T   T
  0.6684870048122299  0.0310185694821599  0.4972711434052588   T   T   T
  0.8090445664922313  0.3032120365603019  0.4484320689906718   T   T   T
  0.0306010600523543  0.1630260245190913  0.7397499816543047   T   T   T
  0.0621397047108609  0.7501606826620439  0.3794931408735601   T   T   T
  0.4346379647215027  0.9962353080630149  0.5207677046934106   T   T   T
  0.2568562177293771  0.1353243406879475  0.6211935310912832   T   T   T
  0.5598991818048266  0.3484754478498112  0.8825360343116126   T   T   T
  0.2736946561705833  0.4478982462192980  0.3597884164140336   T   T   T
  0.8580916929916168  0.6543486196869114  0.4144104602490697   T   T   T
 -0.0047935564994106  0.1978962378562672  0.3929464981547084   T   T   T
  0.5688878232236134  0.9617227165111986  0.3785816827863911   T   T   T
  0.2880097126375096  0.1679433223714292  0.5202382049576788   T   T   T
 
  0.00000000E+00  0.00000000E+00  0.00000000E+00
  0.00000000E+00  0.00000000E+00  0.00000000E+00
  0.00000000E+00  0.00000000E+00  0.00000000E+00
  0.00000000E+00  0.00000000E+00  0.00000000E+00
  0.00000000E+00  0.00000000E+00  0.00000000E+00
  0.00000000E+00  0.00000000E+00  0.00000000E+00
  0.00000000E+00  0.00000000E+00  0.00000000E+00
  0.00000000E+00  0.00000000E+00  0.00000000E+00
  0.00000000E+00  0.00000000E+00  0.00000000E+00
  0.00000000E+00  0.00000000E+00  0.00000000E+00
  0.00000000E+00  0.00000000E+00  0.00000000E+00
  0.00000000E+00  0.00000000E+00  0.00000000E+00
  0.00000000E+00  0.00000000E+00  0.00000000E+00
  0.00000000E+00  0.00000000E+00  0.00000000E+00
  0.00000000E+00  0.00000000E+00  0.00000000E+00
  0.00000000E+00  0.00000000E+00  0.00000000E+00
  0.00000000E+00  0.00000000E+00  0.00000000E+00
  0.00000000E+00  0.00000000E+00  0.00000000E+00
  0.00000000E+00  0.00000000E+00  0.00000000E+00
  0.00000000E+00  0.00000000E+00  0.00000000E+00
  0.00000000E+00  0.00000000E+00  0.00000000E+00
  0.00000000E+00  0.00000000E+00  0.00000000E+00
  0.00000000E+00  0.00000000E+00  0.00000000E+00
  0.00000000E+00  0.00000000E+00  0.00000000E+00
  0.00000000E+00  0.00000000E+00  0.00000000E+00
  0.00000000E+00  0.00000000E+00  0.00000000E+00
  0.00000000E+00  0.00000000E+00  0.00000000E+00
  0.00000000E+00  0.00000000E+00  0.00000000E+00
  0.00000000E+00  0.00000000E+00  0.00000000E+00
  0.00000000E+00  0.00000000E+00  0.00000000E+00
  0.00000000E+00  0.00000000E+00  0.00000000E+00
  0.00000000E+00  0.00000000E+00  0.00000000E+00
  0.00000000E+00  0.00000000E+00  0.00000000E+00
  0.00000000E+00  0.00000000E+00  0.00000000E+00
  0.00000000E+00  0.00000000E+00  0.00000000E+00
  0.00000000E+00  0.00000000E+00  0.00000000E+00
  0.00000000E+00  0.00000000E+00  0.00000000E+00
  0.00000000E+00  0.00000000E+00  0.00000000E+00
  0.00000000E+00  0.00000000E+00  0.00000000E+00
  0.00000000E+00  0.00000000E+00  0.00000000E+00
  0.00000000E+00  0.00000000E+00  0.00000000E+00
  0.00000000E+00  0.00000000E+00  0.00000000E+00
  0.00000000E+00  0.00000000E+00  0.00000000E+00
  0.00000000E+00  0.00000000E+00  0.00000000E+00
  0.00000000E+00  0.00000000E+00  0.00000000E+00
  0.00000000E+00  0.00000000E+00  0.00000000E+00
  0.00000000E+00  0.00000000E+00  0.00000000E+00
  0.00000000E+00  0.00000000E+00  0.00000000E+00
  0.00000000E+00  0.00000000E+00  0.00000000E+00
  0.00000000E+00  0.00000000E+00  0.00000000E+00
  0.00000000E+00  0.00000000E+00  0.00000000E+00
  0.00000000E+00  0.00000000E+00  0.00000000E+00
  0.00000000E+00  0.00000000E+00  0.00000000E+00
  0.00000000E+00  0.00000000E+00  0.00000000E+00
  0.00000000E+00  0.00000000E+00  0.00000000E+00
  0.00000000E+00  0.00000000E+00  0.00000000E+00
  0.00000000E+00  0.00000000E+00  0.00000000E+00
  0.00000000E+00  0.00000000E+00  0.00000000E+00
  0.00000000E+00  0.00000000E+00  0.00000000E+00
  0.00000000E+00  0.00000000E+00  0.00000000E+00
  0.00000000E+00  0.00000000E+00  0.00000000E+00
  0.00000000E+00  0.00000000E+00  0.00000000E+00
  0.00000000E+00  0.00000000E+00  0.00000000E+00
  0.00000000E+00  0.00000000E+00  0.00000000E+00
  0.00000000E+00  0.00000000E+00  0.00000000E+00
  0.00000000E+00  0.00000000E+00  0.00000000E+00
  0.00000000E+00  0.00000000E+00  0.00000000E+00
  0.00000000E+00  0.00000000E+00  0.00000000E+00
  0.00000000E+00  0.00000000E+00  0.00000000E+00
  0.00000000E+00  0.00000000E+00  0.00000000E+00
  0.00000000E+00  0.00000000E+00  0.00000000E+00
  0.00000000E+00  0.00000000E+00  0.00000000E+00
  0.00000000E+00  0.00000000E+00  0.00000000E+00