1-pos-1
1.000
11.0985002518  0.0000000000000000  0.0000000000000000
0.0000000000000000  14.4173002243  0.0000000000000000
0.0000000000000000  0.0000000000000000  26.7964000702
Pt  H  C  O  K  
96  166  6  81  4  
Direct
  0.0000000000000000  0.0000000000000000  0.0018699899937576
  0.1249999521128992  0.1666699702868031  0.0018699899937576
  0.2499999943280624  0.0000000000000000  0.0018699899937576
  0.3750000365432257  0.1666699702868031  0.0018699899937576
  0.4999999886561249  0.0000000000000000  0.0018699899937576
  0.6250000308712881  0.1666699702868031  0.0018699899937576
  0.7499999829841874  0.0000000000000000  0.0018699899937576
  0.8750000251993506  0.1666699702868031  0.0018699899937576
  0.0000000000000000  0.3333300219343480  0.0018699899937576
  0.1249999521128992  0.4999999922211510  0.0018699899937576
  0.2499999943280624  0.3333300219343480  0.0018699899937576
  0.3750000365432257  0.4999999922211510  0.0018699899937576
  0.4999999886561249  0.3333300219343480  0.0018699899937576
  0.6250000308712881  0.4999999922211510  0.0018699899937576
  0.7499999829841874  0.3333300219343480  0.0018699899937576
  0.8750000251993506  0.4999999922211510  0.0018699899937576
  0.0000000000000000  0.6666699625079541  0.0018699899937576
  0.1249999521128992  0.8333300141554991  0.0018699899937576
  0.2499999943280624  0.6666699625079541  0.0018699899937576
  0.3750000365432257  0.8333300141554991  0.0018699899937576
  0.4999999886561249  0.6666699625079541  0.0018699899937576
  0.6250000308712881  0.8333300141554991  0.0018699899937576
  0.7499999829841874  0.6666699625079541  0.0018699899937576
  0.8750000251993506  0.8333300141554991  0.0018699899937576
  0.0000000000000000  0.2222199683821562  0.0864100026098289
  0.1249999521128992  0.0555599860957249  0.0864100026098289
  0.2499999943280624  0.2222199683821562  0.0864100026098289
  0.3750000365432257  0.0555599860957249  0.0864100026098289
  0.4999999886561249  0.2222199683821562  0.0864100026098289
  0.6250000308712881  0.0555599860957249  0.0864100026098289
  0.7499999829841874  0.2222199683821562  0.0864100026098289
  0.8750000251993506  0.0555599860957249  0.0864100026098289
  0.0000000000000000  0.5555599783168760  0.0864100026098289
  0.1249999521128992  0.3888900080300730  0.0864100026098289
  0.2499999943280624  0.5555599783168760  0.0864100026098289
  0.3750000365432257  0.3888900080300730  0.0864100026098289
  0.4999999886561249  0.5555599783168760  0.0864100026098289
  0.6250000308712881  0.3888900080300730  0.0864100026098289
  0.7499999829841874  0.5555599783168760  0.0864100026098289
  0.8750000251993506  0.3888900080300730  0.0864100026098289
  0.0000000000000000  0.8888900002512240  0.0864100026098289
  0.1249999521128992  0.7222199606033073  0.0864100026098289
  0.2499999943280624  0.8888900002512240  0.0864100026098289
  0.3750000365432257  0.7222199606033073  0.0864100026098289
  0.4999999886561249  0.8888900002512240  0.0864100026098289
  0.6250000308712881  0.7222199606033073  0.0864100026098289
  0.7499999829841874  0.8888900002512240  0.0864100026098289
  0.8750000251993506  0.7222199606033073  0.0864100026098289
  0.2366670677665660  0.4475941600580295  0.1735637229111308
  0.5008783538387016  0.4521381106160947  0.1708897873558962
  0.1225596783835178  0.6186704927644017  0.1772487846112588
  0.8802158281264724  0.2812730010550148  0.1698094716297479
  -0.0017900974860795  0.4590212304066322  0.1688783867924324
  -0.0036295890423093  0.1116834212126687  0.1719433951176118
  0.1282278670912486  0.9486104723163610  0.1728657835106515
  0.3729998398683282  0.9501270870541985  0.1727233227215157
  0.8768070265369184  0.6237661054142775  0.1725162046502277
  0.4953539360787384  0.1161582037653177  0.1706370259259185
  0.2398036838417293  0.1157352521859560  0.1712715934706429
  0.2438998937501470  0.7802086920157860  0.1741963633201257
  0.7489829653201864  0.1087002875308501  0.1704527684030025
  0.6310976647555622  0.2807775556187077  0.1683592803391940
  0.3712129717645243  0.6162367570126234  0.1738598423667000
  -0.0041500629864409  0.7851819815834922  0.1706072043529494
  0.7468607289760298  0.7871957343907665  0.1737137038298166
  0.6199138626035671  0.9510672513352442  0.1713203222176603
  0.8765714000071470  0.9516706457200914  0.1716609174832964
  0.7562913506659311  0.4556139158931145  0.1713360061005289
  0.3747171046128966  0.2920092707304641  0.1737424922789359
  0.1170727712772966  0.2831709692234157  0.1729380897120414
  0.5014591260109557  0.7816303567852726  0.1737063638289402
  0.6206079608984020  0.6174567284654170  0.1736857380098544
  0.3654994354072389  0.5158504721615517  0.2616102600362347
  0.1162383481940067  0.5229255172402465  0.2635278108626662
  -0.0074767419126329  0.0199071543100876  0.2602578566012561
  0.8658648309659174  0.1847244849844491  0.2575846471920690
  0.7495889246072450  0.3506173573385118  0.2552167702931656
  -0.0034873502384904  0.6857625253330003  0.2634815151364959
  0.6192568390657411  0.8491527066812127  0.2602791596419072
  0.2459109720574507  0.6861356980641148  0.2620902667411019
  0.7521122126249623  0.6886042474142916  0.2590088896388162
  0.9940900110454687  0.3573214048575537  0.2573098763914872
  0.1235060129568127  0.8503352093991117  0.2631305796087621
  0.6182648280146791  0.1759872091394414  0.2578525001604228
  0.2389743511489172  0.0174779867644904  0.2572863785373594
  0.3716259050704687  0.1803857669424561  0.2560119976499812
  0.8686540263614827  0.5231595240756118  0.2565154710182194
  0.4959108153020369  0.0127617731154609  0.2595152337060960
  0.3742427054435903  0.8534149963987027  0.2630359897126059
  0.5046351386973800  0.3429189875415835  0.2534550920835431
  0.1164471680478085  0.1837358922536147  0.2599155818040456
  0.7496568021747458  0.0124300086640320  0.2597665590327203
  0.8792555529038565  0.8502929692577172  0.2615180539752143
  0.2421528220683803  0.3487370018851166  0.2594013093770069
  0.6163458585488230  0.5157751206960832  0.2664509163878411
  0.4995649832958991  0.6801424574812238  0.2590513537010418
  0.8240157645459143  0.7414411263131623  0.3558283223948310
  0.9292234185359772  0.7689132443684156  0.3917685097773526
  0.1954993897439522  1.1138538637929833  0.4375027812387972
  0.1308943711619406  0.0953337873261035  0.4902729977602527
  0.6928902548930246  0.8643965341995975  0.7596053426458668
  0.5634240498833016  0.8848829003017740  0.7348685383190365
  0.6103614886526086  0.5264696059326550  0.8711632802594504
  0.6105760751864616  0.5667413086763766  0.9280848256500293
  0.4699840996943734  0.0229398105092216  0.8348401953282611
  0.3633851613641137  0.9782010792651535  0.8611855554867360
  0.1844660017706412  0.5783807636082480  0.9168793054863740
  0.0657275527908999  0.5108676181887312  0.9059084748998083
  0.0659253631842135  0.7224383770648507  0.7824545755202822
  0.0730534586660485  0.8082521859924560  0.7445677376338369
  0.3429781420676761  0.1850712406683998  0.3728070800491463
  0.3678413819595026  0.2629006588980864  0.3367756140062976
  0.5375994271237072  0.3731050713595842  0.8652553464368002
  0.6694452654533208  0.3888599584581517  0.8707934107518287
  0.6269607906772332  0.4072341123759226  0.7934216087348227
  0.7010571909874126  0.3772726241444480  0.7427241016166637
  0.7835170613425602  0.2942027946987517  0.9184894547111567
  0.8665763785462960  0.3497065004932152  0.8848622597842497
  0.3154001022464525  0.4825965363870903  0.6898605115527381
  0.2079895212531638  0.5295700369151950  0.7154003888387578
  0.5414305549549746  0.3440333001902805  0.5295280087521881
  0.4723199696688590  0.2933276782065020  0.4859210398183466
  0.4374179406188370  0.8387746165345005  0.3469998702303522
  0.5214243646713830  0.9225583128651115  0.3541011189503852
  0.5274817555327381  0.7390278533106790  0.5645745201096740
  0.6299731321685601  0.7985000223756490  0.5928690824842363
  0.0663579932865754  0.1987420739266127  0.3453952901790259
  -0.0475481365794818  0.1891769899611995  0.3779259783504350
  0.5301894005674919  0.5774420301637445  0.4696667815501109
  0.4903116662197163  0.4780395466193899  0.4830395764950001
  -0.0956992717126570  0.3044117325657681  0.7429411896503085
  -0.1065781409617177  0.3671721563984439  0.6960012017151824
  0.8699944148790743  0.5454346654546277  0.7661889929286595
  -0.0789473507970498  0.4433417052262529  0.7750937082215679
  -0.1279215279893102  0.0004949353130604  0.3820743090966840
  -0.2342615124578052  -0.0024538162172951  0.3445284331258715
  0.4827587639267777  0.1983549150748748  0.8817419282553520
  0.4389675266088189  0.2709585264455898  0.9214829111937387
  0.2160622913092323  0.3912462894746906  0.8985496405458127
  0.3060322930793412  0.3192414685755404  0.8791819163388153
  0.5756194850528461  0.8967616237476066  0.8800635582436274
  0.6288613686671809  0.8296633441772392  0.9147350107844935
  0.0604877107959809  0.8555758764189085  0.4814859775641386
  -0.0012882468509816  0.9233210108826962  0.4437830529454116
  -0.0365630324992953  0.6297477823134410  0.3421844249965911
  0.0864899950373311  0.5923576983092652  0.3663724350689143
  0.0950522660689138  0.6006000201483923  0.4773711289683893
  0.2178353749019284  0.5863630186081150  0.4490282621239501
  0.9508975132823360  0.1768043925730043  0.6965306307453072
  0.8655546311441494  0.2014983335648092  0.6528849632662400
  0.8772731015454910  0.5135512819883368  0.9010643363677688
  -0.0766605594987495  0.5075325578756388  0.8477242945914285
  0.4801515772940337  0.5409783874552481  0.6631299137812647
  0.3909047882209464  0.5481045198449194  0.6197008312496082
  0.4451132043537861  0.8714302226448920  0.5608188822203921
  0.4111770053489778  0.9668684178265982  0.5488432225138901
  0.1665600007983233  0.7281483244488448  0.6401762596042613
  0.0800272837725035  0.6911264995720646  0.5993925437716501
  0.5395922832482464  0.1848543178776315  0.6935513290372101
  0.6208445253116500  0.1196218144637919  0.6595822945618561
  0.7781294101515532  0.1594067233701922  0.5343336217435841
  0.9000577060923070  0.1894231588724924  0.5144413047008636
  0.2997947278741890  0.0568019707684045  0.3349393423925325
  0.3904984541129422  1.0516778020509159  0.3791802880118801
  0.8008635624672302  0.6977142736297842  0.7567555880706273
  0.7095188795101272  0.6249333856427655  0.7322783284170283
  0.8550164608016267  0.6348649623438362  0.6795693347462433
  0.8888025175203428  0.5626466014231768  0.6362285218438580
  0.2652786788487479  0.4629928356107390  0.4936969416541951
  0.2711884250497594  0.3563595410353225  0.4937327566255154
  0.6931737004603200  0.8434385926780135  0.6784657974381522
  0.7462081409203757  0.7499309688631355  0.6538933306189147
  0.5247211665968563  0.6109395428801691  0.7362229506283362
  0.5911647045316689  0.5178755342013081  0.7308415214243302
  0.6569993001547575  0.0288661060965182  0.5206314942996697
  0.5572484076302969  0.0395434824988311  0.4763844869257740
  0.0640999496562268  1.0483562826225219  0.5711449285017997
  0.0097554107711481  0.9989538895240192  0.5228392877288248
  0.6224747568915489  0.1138867345102901  0.3962931960853031
  0.5107440679186055  0.1826502573874128  0.3925719080451647
  0.3065070903024296  0.6920263160840447  0.8838274057468658
  0.1817161128840729  0.7377297158294012  0.8902093187184587
  0.7741508992988966  0.9492084871503358  0.8676546941899150
  0.8086081772665190  0.9867791989807680  0.9176026886553525
  0.1760600370021248  0.6325496288638732  0.8206192546458676
  0.0808180417849274  0.5665056586415474  0.7879068552973136
  0.8839951563193241  0.0424426731482392  0.5631991103231562
  0.7817239127955956  0.0147443937833597  0.6034044670120242
  0.1623690557206354  0.3254710656362037  0.6392168135431243
  0.1451944432346749  0.4079624731117489  0.6734897126300929
  0.4336025624200455  0.6926434225506912  0.7950420479761479
  0.3342156632017386  0.6635065047599406  0.7545599338019247
  0.4176491920291872  0.2470555367707853  0.7563395767791555
  0.5531226803913780  0.2947329401476977  0.7572683758915287
  0.5185356994217877  0.6588140068409493  0.8635466850576579
  0.5193763411290748  0.7688597864610398  0.8579935214233575
  0.1766180016603673  0.2329720717432782  0.9004831015317761
  0.0567315640325262  0.1725499147480495  0.8896095541994226
  0.8683784321252700  0.3957532156320916  0.6015812747185814
  -0.0001293047589711  0.4246038053630962  0.6097743001968116
  -0.0262960213613247  0.1772385029267202  0.7923511901440845
  0.0876040535154570  0.2391381684754641  0.7705428180056983
  -0.0553461178414964  0.4302174508404643  0.5323916294810537
  0.0551650188142045  0.4019527196938404  0.5007740939882095
  0.2497171336776344  0.3631810866832543  0.7513978012700165
  0.2312601545315757  0.3292038900182120  0.8065831456530677
  0.8065210983752746  0.2915705764325304  0.5737649618240398
  0.7104002666775882  0.3257459334781954  0.6085774600908279
  0.2549985350084578  0.1556402373391616  0.6122826713072561
  0.3870915741523937  0.1533479931196580  0.6284878719969903
  -0.0568151198715099  0.5308802442984166  0.4812524848567746
  -0.0538393060722857  0.6086289254357287  0.4370030304638827
  0.4004218276680437  0.6083923899438582  0.5305832975904619
  0.3102414476894358  0.6635433515129203  0.5613394202838431
  0.4139219577847863  0.9203015069934296  0.7743283733688909
  0.3895899451728839  0.8274244446955185  0.7515726629450075
  0.0225890556752783  0.8777023993765374  0.9001860730921668
  0.0594242082116488  0.8585769103175490  0.8432524980521142
  0.3183430278002636  0.9065453131142368  0.6207346308132595
  0.3437206358022385  0.9254162353581556  0.6794115335718719
  0.7979627119406215  0.7582297841779709  0.8254129477786573
  0.8817737847429257  0.8097703336594587  0.7882243308081179
  0.2999379343673134  0.1748370737991194  0.4958275235588701
  0.3616669387784173  0.2110689135730853  0.5454927113868434
  0.0588717158062893  0.8277725649484032  0.3550533094025786
  0.0909190717670476  0.7307667610779421  0.3844119793298458
  0.5089974630026074  0.3879919091767123  0.6147716139684074
  0.5296909130624704  0.2802072901132324  0.6246395448698445
  0.2476406415230965  0.8017509059509944  0.5292149781257597
  0.2029192218322242  0.7113072670301499  0.4990636430515193
  1.0366812906846556  0.9668734745222947  0.3454620533447987
  0.0537854296307455  1.0617868436282252  0.3805174128870922
  0.7025835848708791  0.9883698411636467  0.6902869451471785
  0.7992740412526734  0.0645573764935030  0.6768216620697973
  0.2162645681618761  0.0641298647538493  0.9004600540777009
  0.1838663673471594  0.9560970481745841  0.8906482300374862
  0.5646086249701804  0.0771157312328204  0.9207693348084813
  0.6527104720500521  0.1328302671100810  0.8877298261363976
  0.8754183609289233  0.6904579483835588  0.5831488278113087
  -0.0752334548953657  0.6966928554120253  0.5226795250857539
  -0.1230937034108218  0.8520360971116855  0.6349037022484273
  -0.0422340960278826  0.8298293681181131  0.5925728055298991
  0.7046248119994117  0.6691463606923954  0.4233839040609355
  0.7527694273778129  0.6146863679555706  0.4685144856887598
  -0.0736625901024246  0.4901184918442720  0.3737247954338836
  0.8922165815416376  0.4052409722419905  0.3385802202994309
  0.8829336379760607  0.0943678287011643  0.8683271669643472
  -0.1273336373597684  0.2061741793092418  0.8677652913295397
  0.7801950413611648  0.2182255169450602  0.3411034600712983
  0.7883582475732209  0.1363897506958847  0.3794365715754188
  0.1668123610394781  0.0227082868294709  0.6437896400190312
  0.0567197968570487  0.0889900411408193  0.6477636321866741
  0.2006574719173265  -0.1466760884285236  0.6813508303603906
  0.0662243635288287  0.8329378334481521  0.6636149729409260
  0.7577743865920988  0.6555420454358249  0.8891092707634058
  0.8800452053885315  0.6928493418042139  0.9100720999056940
  0.3657112327534272  0.4258122908304817  0.3466388348869980
  0.5864211101805797  0.4353126694290448  0.3528747242886430
  0.7061786943987209  0.5818413958503308  0.3503088806260661
  0.3617268999880314  0.7165769212939869  0.3505435950161902
  0.5983667171898238  0.7211959061430198  0.3518564559604900
  0.4223928728874600  0.6806796519544960  0.4050267612166978
  0.4089260794370782  0.4966814299830312  0.3376852406216692
  0.5434427510349250  0.4991160015639739  0.3415605824074296
  0.3457816853928163  0.5698150331331447  0.3621003329805704
  0.6078136977747002  0.5810490521713981  0.3407594132487456
  0.4197837356578326  0.6625751516084422  0.3664557912993836
  0.5397306259490767  0.6651364820465612  0.3389770369416717
  0.8384642807473707  0.7583105755038001  0.3927649749715595
  0.2062095050210791  0.0850987897811894  0.4704070334775353
  0.6516477049164398  0.8903747511454255  0.7279523428892591
  0.6172847572615847  0.5890741931339889  0.8923106442380242
  0.4265404160379441  0.9615622667920889  0.8390956876145856
  0.1521555865105395  0.5125462315923148  0.9184896639855363
  0.0445183923854817  0.7929852467267386  0.7803163237793805
  0.3646589048410945  0.2513411019417083  0.3734396219075898
  0.6016569622113598  0.4171944128944597  0.8500624941195687
  0.6242941868903656  0.4007139954374155  0.7559763282579175
  0.7960851738113937  0.3095962164522878  0.8830930711777278
  0.2435923964286556  0.4680132679436944  0.7123793432995092
  0.5389368826774512  0.3372282322251536  0.4928486744750050
  0.4715736227109755  0.8781521624319719  0.3739223852066191
  0.5809499461113486  0.7930187845939175  0.5625656938323016
  0.0389145309547525  0.1863007843779858  0.3787582065729416
  0.4591560321020418  0.5393082380149655  0.4790265819316152
  -0.1318189694380307  0.3653702473242184  0.7306663197894950
  -0.0665280905030614  0.5067885354835739  0.7878866184819737
  -0.2196444101629533  0.0093244002280966  0.3820294097035996
  0.4601096497314403  0.2666288950840406  0.8856786129750773
  0.2219662758939399  0.3378458330353936  0.8746088317349516
  0.6323747569462572  0.8480539547544615  0.8803012948494144
  -0.0017217795978246  0.9048541736900257  0.4795611976994971
  0.0017414667803306  0.6025812403737889  0.3744691220914849
  0.1841923212614654  0.6024351637459020  0.4835836674759455
  0.9098969626154835  0.1478046504024621  0.6679480421926097
  -0.0597270025283363  0.4824176728439941  0.8824719979680280
  0.4181996350044900  0.5061796459991750  0.6464943035115203
  0.3721116545931689  0.9062822957364334  0.5519430549869981
  0.1671647402719213  0.6952080975331597  0.6060253088234622
  0.5525751124802077  0.1599955109079375  0.6580273814320758
  0.8147909640614168  0.1969608262102950  0.5071018616904304
  0.3057189120529781  0.0677712756479301  0.3727090473584446
  0.7995670973797363  0.6374959056695545  0.7374984561443928
  0.8829277708770363  0.6317086142625705  0.6419156868660536
  0.2226605373369443  0.4081590200557617  0.4808585702461423
  0.7136110049387528  0.8075736290055167  0.6463886876678775
  0.5891250615811424  0.5814562976201753  0.7176277387941116
  0.5762898672334289  0.0015605018796848  0.5071965552684242
  0.0274671249433507  1.0565664756932394  0.5390258365959750
  0.5437287842941921  0.1263871818822772  0.4095352887832180
  0.2211212686328481  0.6766506874745792  0.8865694795779590
  0.8419025679514288  0.9866512528486002  0.8824373137903935
  0.1368777117749418  0.6181283651067682  0.7895517948781726
  0.7946590751096855  0.0410908435756573  0.5690398826839949
  0.1021231619214658  0.3668035452009714  0.6509624637564164
  0.4187961094785006  0.6884771914695932  0.7557497669331091
  0.5047793616882061  0.2397291186164371  0.7572933638749236
  0.4681451353985723  0.7110930959473563  0.8507384262989865
  0.1355684931354555  0.1697259968115014  0.9098704438292866
  0.9239106870531412  0.4497736234673466  0.5922825587960235
  0.0034760951952714  0.2139127340084047  0.7625807377769712
  -0.0329687315401607  0.4119248687621990  0.4982282022444948
  0.2336115441074571  0.3034001445171667  0.7718779150301597
  0.7976455563592241  0.3039875018287476  0.6089071717900433
  0.3279593164049056  0.1959147198682366  0.6114181849979267
  -0.0653139704963682  0.5980678863555154  0.4749518404173091
  0.3941472975585629  0.6453242830109496  0.5616737688223232
  0.4089260949436779  0.8926481515179000  0.7408626091150843
  0.0948109739177904  0.8703772080676959  0.8773654565877859
  0.2859355853134585  0.9349309375677132  0.6504654955866206
  0.7931277823841442  0.7963155463149427  0.7947643569213604
  0.3387416512325856  0.2306863655370318  0.5100442331057491
  0.0717120281067632  0.8007968584604096  0.3900878170133240
  0.5613039369972220  0.3377249503199832  0.6072707100046870
  0.2034238190456262  0.7803632538384109  0.5000303788381225
  1.0511347836936757  0.9902742745230716  0.3776465919485158
  0.7251681303421782  0.0361933744655259  0.6671041496980672
  0.2473833675009117  1.0000128011831015  0.9070523034745311
  0.5776622296476686  0.0938479236992995  0.8843263227754583
  -0.0934185102651006  0.7315530175908567  0.5545116270571152
  -0.0418760373253695  0.8690988309850758  0.6248643684798899
  0.6783727705172533  0.6303541314470510  0.4507279514695593
  0.9092114932973415  0.4238186441037835  0.3739585223742037
  -0.0860735307227720  0.1543078136050965  0.8527441420988401
  0.7961684359350171  0.2053779327151221  0.3779284119161315
  0.1248927508989508  0.0730550348202337  0.6266805340794669
  0.1353839654377004  -0.1942382947523011  0.6819453725510679
  0.8304731930609406  0.6873352125870109  0.8778679963679326
  0.2485978922469749  0.5564302529178622  0.3813271550443654
  0.7224806151623535  0.8649824365855215  0.4614194209337208
  0.7505370294197211  0.3493127746907635  0.4359778766324712
  0.1394405540558516  0.3672854387796520  0.3933091004310169
  0.2732353599945340  -0.0955275068128693  0.4327105234182099
