1-pos-1
1.000
11.0985002518  0.0000000000000000  0.0000000000000000
0.0000000000000000  14.4173002243  0.0000000000000000
0.0000000000000000  0.0000000000000000  26.7964000702
Pt  H  C  O  K  
96  168  6  81  4  
Direct
  0.0000000000000000  0.0000000000000000  0.0018699899937576
  0.1249999521128992  0.1666699702868031  0.0018699899937576
  0.2499999943280624  0.0000000000000000  0.0018699899937576
  0.3749999464409617  0.1666699702868031  0.0018699899937576
  0.4999999886561249  0.0000000000000000  0.0018699899937576
  0.6249999407690242  0.1666699702868031  0.0018699899937576
  0.7499999829841874  0.0000000000000000  0.0018699899937576
  0.8749999350970866  0.1666699702868031  0.0018699899937576
  0.0000000000000000  0.3333300219343480  0.0018699899937576
  0.1249999521128992  0.4999999922211510  0.0018699899937576
  0.2499999943280624  0.3333300219343480  0.0018699899937576
  0.3749999464409617  0.4999999922211510  0.0018699899937576
  0.4999999886561249  0.3333300219343480  0.0018699899937576
  0.6249999407690242  0.4999999922211510  0.0018699899937576
  0.7499999829841874  0.3333300219343480  0.0018699899937576
  0.8749999350970866  0.4999999922211510  0.0018699899937576
  0.0000000000000000  0.6666700318690679  0.0018699899937576
  0.1249999521128992  0.8333299447943854  0.0018699899937576
  0.2499999943280624  0.6666700318690679  0.0018699899937576
  0.3749999464409617  0.8333299447943854  0.0018699899937576
  0.4999999886561249  0.6666700318690679  0.0018699899937576
  0.6249999407690242  0.8333299447943854  0.0018699899937576
  0.7499999829841874  0.6666700318690679  0.0018699899937576
  0.8749999350970866  0.8333299447943854  0.0018699899937576
  0.0000000000000000  0.2222199683821562  0.0864100026098289
  0.1249999521128992  0.0555599860957249  0.0864100026098289
  0.2499999943280624  0.2222199683821562  0.0864100026098289
  0.3749999464409617  0.0555599860957249  0.0864100026098289
  0.4999999886561249  0.2222199683821562  0.0864100026098289
  0.6249999407690242  0.0555599860957249  0.0864100026098289
  0.7499999829841874  0.2222199683821562  0.0864100026098289
  0.8749999350970866  0.0555599860957249  0.0864100026098289
  0.0000000000000000  0.5555599783168760  0.0864100026098289
  0.1249999521128992  0.3888900080300730  0.0864100026098289
  0.2499999943280624  0.5555599783168760  0.0864100026098289
  0.3749999464409617  0.3888900080300730  0.0864100026098289
  0.4999999886561249  0.5555599783168760  0.0864100026098289
  0.6249999407690242  0.3888900080300730  0.0864100026098289
  0.7499999829841874  0.5555599783168760  0.0864100026098289
  0.8749999350970866  0.3888900080300730  0.0864100026098289
  0.0000000000000000  0.8888900002512240  0.0864100026098289
  0.1249999521128992  0.7222199606033073  0.0864100026098289
  0.2499999943280624  0.8888900002512240  0.0864100026098289
  0.3749999464409617  0.7222199606033073  0.0864100026098289
  0.4999999886561249  0.8888900002512240  0.0864100026098289
  0.6249999407690242  0.7222199606033073  0.0864100026098289
  0.7499999829841874  0.8888900002512240  0.0864100026098289
  0.8749999350970866  0.7222199606033073  0.0864100026098289
  0.2409912095615095  0.4514465190250980  0.1713797744461622
  0.4935841668437632  0.4524068930052876  0.1738764157795031
  0.1172696283706363  0.6188244581993628  0.1716619018953790
  0.8672533929472986  0.2852173386158123  0.1717493390135688
  -0.0077875386799205  0.4517791749263684  0.1718500614984149
  -0.0069659862365153  0.1189860773731158  0.1718865962567196
  0.1173983845059320  0.9519192072360652  0.1719672414177986
  0.3670978877834619  0.9525674562046375  0.1714763919019852
  0.8673916999225814  0.6179346244717987  0.1715478940438767
  0.4919878250319832  0.1188645567019262  0.1717627736540077
  0.2414910969223356  0.1192973006902551  0.1719049942504318
  0.2421395629165435  0.7856288503245024  0.1718141984721322
  0.7423075922950801  0.1185105375776384  0.1717543396852878
  0.6171644676846408  0.2848070676283198  0.1720552756311191
  0.3662062357786430  0.6183030707077345  0.1711606032147798
  -0.0076958145751402  0.7857964267751840  0.1718839466470775
  0.7423099349539449  0.7846739558722945  0.1715065078876358
  0.6174433341918067  0.9521966516908360  0.1718205799263407
  0.8672418598575031  0.9519554830985264  0.1715936837767060
  0.7415918199096435  0.4519579185163546  0.1729044568621944
  0.3669863411805955  0.2856672147992234  0.1718836107810665
  0.1167986638365632  0.2853199237029639  0.1721744707465686
  0.4929951683438137  0.7853668733980850  0.1706931523643975
  0.6165487088122751  0.6151005293663134  0.1742204172116301
  0.3532101555220690  0.5186896911112276  0.2573362459858412
  0.1079505314067717  0.5188109343379625  0.2585043506535578
  -0.0163384237406843  0.0185350236065417  0.2594370878844739
  0.8588927137658975  0.1849917778298533  0.2585562979299215
  0.7332315011372985  0.3515989763087645  0.2584884156772594
  -0.0171775461255750  0.6859760042543044  0.2584775186911256
  0.6088156820020914  0.8529160667178269  0.2590419228633420
  0.2320558581401392  0.6867120643928117  0.2593993589359080
  0.7345924958354381  0.6872364344123288  0.2576753960200320
  0.9832365411921465  0.3517997073717912  0.2595278090258821
  0.1086829727110535  0.8529144020510984  0.2593744675326504
  0.6088996573121652  0.1855213499328973  0.2600488491642374
  0.2344410452734824  0.0189013890090668  0.2594539558219138
  0.3587618065201403  0.1846668210122028  0.2592235517383867
  0.8588070265128072  0.5184255639902857  0.2588309990084512
  0.4838084316058059  0.0193710331098803  0.2590886082388671
  0.3583449934467478  0.8532481677301877  0.2584484476219536
  0.4821605512990019  0.3501150646424220  0.2587016159573355
  0.1087443323528564  0.1851271707237815  0.2599853331697179
  0.7339496161815998  0.0192067859926559  0.2590985722638594
  0.8586529516413196  0.8534685973495032  0.2593642049600929
  0.2332174565279852  0.3513111276869396  0.2592691548789877
  0.6025551063906496  0.5209792321131113  0.2711595207178801
  0.4811057240940288  0.6880201456359429  0.2562593475993266
  0.7694673880477643  0.7829945845875659  0.3533185045452762
  0.8876264158666187  0.7819203196586928  0.3849980584322198
  0.2391899752013303  0.0910882744736463  0.4467862835543432
  0.1754627162065583  0.1078788660708156  0.4987405757858672
  0.6935683043077444  0.8660903779303980  0.7392980380984490
  0.5518328477765904  0.8734431415096241  0.7243932001741875
  0.6562764188628731  0.5868758275380099  0.8584037758706413
  0.6787797296106017  0.5841937719937392  0.9179650227477891
  0.3821329822749844  0.0363653382979653  0.8029449084068482
  0.3216917528493054  0.9851305569721943  0.8490637526083997
  0.1856589587107333  0.5611803787205123  0.9104855105941065
  0.0489718419307916  0.5355790529342955  0.9030028263725426
  0.0797512258339993  0.8036406136893461  0.7743752125523899
  0.0491702471161807  0.8918893828906391  0.7390188214879938
  0.2757545551709693  0.1643072533099736  0.3784527016103887
  0.3553948651179504  0.2234031302595270  0.3429207272591454
  0.5128862342528492  0.3829897355326866  0.8362021369026663
  0.6507918039492385  0.3875773489534379  0.8337012412665198
  0.5847360321451968  0.2853222126197157  0.7817992694958162
  0.6505947502978098  0.2148106754952706  0.7449477149059078
  0.7287753134652768  0.3585524279564614  0.9146643181841801
  0.7599460115011571  0.4483645966603886  0.8856279178482527
  0.4262728199904945  0.5554564915352466  0.6658489555782644
  0.2953101703510293  0.5971750512269035  0.6583343640856580
  0.5605733080008687  0.3728576027666790  0.5389512756252938
  0.4969416475082302  0.3276552424175768  0.4943192356174259
  0.5057629294633413  0.8541311347074964  0.3444343260968156
  0.5542931801981328  0.9295319367361425  0.3791930249354634
  0.5067765799336538  0.7485392432773575  0.5506755370625374
  0.6003848131570125  0.8081131570224812  0.5808368646245485
  0.9333585407920275  0.2121673234524404  0.3382065865660274
  0.8330380493076559  0.2307064393646900  0.3778456424547788
  0.6109672339648106  0.5846365733435537  0.4795234795098391
  0.5453774710703205  0.4861268677881256  0.4881853892959273
  0.9828614454669989  0.3577990275395309  0.7323072483091769
  0.1006501756684494  0.4011832943765190  0.7074918254069231
  0.9038177026101457  0.5915844761021553  0.7621362551125538
  0.9980649410899893  0.5091895768131882  0.7532371119673820
  0.7471437412145070  0.0201186765543743  0.3817474352226915
  0.6530834649325209  0.0314619930876846  0.3387650197869376
  0.4492477259881446  0.2732478299480841  0.8842075404878502
  0.4492016837312263  0.3661892946573729  0.9170285909907522
  0.1608120880756423  0.3933029008054323  0.8886735881541966
  0.2843345432630141  0.3406331923172838  0.8803498581227119
  0.5013581901840796  0.9524600852006412  0.8577677949196422
  0.5417560808745162  0.9450872762595579  0.9152882825956755
  0.0368785863597758  0.9156228832462242  0.4812786779647354
  0.9514016993681175  0.9737310579367928  0.4462696096741305
  0.0805467387231005  0.5796714967420865  0.3366473845877563
  0.1579294463426017  0.5657310920287790  0.3852246560342893
  0.2471450139900784  0.6210818156444931  0.4538589500134011
  0.2753712601397951  0.6668151353189130  0.5053746758714864
  0.8456166857749893  0.2023940650886790  0.7208521275020592
  0.7745208636280259  0.2355404928223917  0.6720903536601655
  0.8683224563099883  0.5858279198323402  0.8810598788699078
  0.9636495704242048  0.5707946614116899  0.8373849823564200
  0.6373295345785847  0.5748001963663318  0.6363020389056588
  0.5218068089029189  0.5914071197344428  0.6007105416335821
  0.4286310665468935  0.8794866447067861  0.5524842128500698
  0.3900121549574212  0.9786233053688828  0.5386380992292847
  0.2553832441946658  0.7398281810086867  0.6267518008389942
  0.1450139175100685  0.6790500889687435  0.6093315877216686
  0.3880694600427183  0.1146055068767373  0.7006939346632862
  0.4863487748378049  0.0879657758574266  0.6600451535902148
  0.7885159977881400  0.1417096105522209  0.5470949068380058
  0.9173586312572957  0.1767589604400938  0.5373637489467639
  0.0876238210511620  0.0577622014554693  0.3815908470246870
  0.1856536426771557  0.0618802401365209  0.3396001692824434
  0.7817608508494497  0.7066907702197540  0.7568047180543770
  0.6991458146555917  0.6160882316252981  0.7636867245745395
  0.7805223952303879  0.6182251088159439  0.6857351342665953
  0.8266782711035194  0.5516503697824712  0.6400985563383544
  0.2310016616510142  0.4358024666372696  0.4604748013790908
  0.2438736710900220  0.3437227444044993  0.4920093731046313
  0.6697822977293163  0.8229362512686424  0.6638161452060765
  0.7238667223255718  0.7316871977334565  0.6361843365280359
  0.5065567304094261  0.6140392349657009  0.7927460757545500
  0.5709774164281557  0.5134780357505828  0.8002223412034598
  0.6075060455944477  0.0355753152130050  0.5269465660688880
  0.5343876078245889  0.0795146096817624  0.4815731951379126
  0.0837343766198751  0.0900444590736842  0.5668141601188834
  0.0122777850077446  0.0454228593295314  0.5192941948748917
  0.5740790967650478  0.1057406710190096  0.4049593218332259
  0.4606371927748394  0.1749945524299780  0.4087605787085208
  0.3055359663978054  0.7118332725500474  0.8864419451035129
  0.1752809799400143  0.7293040885892014  0.9087849836621074
  0.6820883748479657  0.0389158851706746  0.8769438782238860
  0.7177365246901781  0.1031827025071352  0.9212629284279733
  0.1635259682681589  0.6976738254396982  0.8280838075961143
  0.0926042236952972  0.6495329815090032  0.7827936941174144
  0.8002472224622921  0.9892761320153818  0.5726340836754596
  0.7000872031101537  0.0395691975005465  0.6045644548357084
  0.2827882983100334  0.3452472323223520  0.6729781221640571
  0.2894427109175406  0.4485393173057807  0.6942242223308153
  0.2952441253914970  0.6789923111610374  0.7748800564853271
  0.3701050508453889  0.6329790500317535  0.7320237400774706
  0.3176146254020487  0.1745377401351977  0.7719366014020559
  0.4607988362365051  0.1652622171232953  0.7674227114883688
  0.4774445086975241  0.7196770434531042  0.9188614491310745
  0.4859746702375616  0.8018239767606197  0.8817056372536708
  0.1502575989696929  0.2377749611000032  0.9034155310631364
  0.0287481184629656  0.1822515283111944  0.9020757615453673
  0.8496155143548059  0.3987607187585727  0.6219244359817327
  0.9503418264363587  0.4392348013483547  0.6567371346112557
  0.9308010781298633  0.2399963894882405  0.7973674801101940
  0.0485149333499067  0.2393558396032881  0.7653452309367215
  0.9711290494634144  0.4415243423502382  0.5617124300491031
  0.0575357918198394  0.4201178379979309  0.5138537625922686
  0.2327223445871526  0.3130837209307791  0.7562737512094753
  0.1984717709622749  0.2942786051475178  0.8129930491755567
  0.7926858404650814  0.2640967407741464  0.5876998760558683
  0.6812936728792407  0.3203741982299090  0.6124693972699560
  0.2435005576146830  0.2410362513047220  0.6170468404966082
  0.3654582968849485  0.2038422557814696  0.6383698539798792
  0.9792654641096504  0.5550980332996823  0.5116031244527421
  0.0568729995656511  0.6404547908655567  0.4918018079098503
  0.4516439055976992  0.6017340878688134  0.5280943695021635
  0.3497981629878653  0.6416429467431133  0.5720309802750901
  0.3826440423165500  0.8925476892206969  0.7666414498284011
  0.3979812496993577  0.7876379643437262  0.7473933792424723
  0.9702708253985499  0.8872636902184705  0.8878774364344092
  0.0462185870488949  0.8943426161208375  0.8386636615786378
  0.3142888607345195  0.8902326926900881  0.6187558387157730
  0.3303555360468960  0.8618671878009884  0.6771491675174325
  0.7877434609763657  0.8151664193127820  0.8144535438650475
  0.8855675791335841  0.8335583509417757  0.7727047642875955
  0.3216771562825329  0.2068811048945758  0.4971227092110129
  0.3506004335467685  0.2604846914174834  0.5476983461043863
  0.0364800640459810  0.7851634372516241  0.3391607072663088
  0.0551659220713809  0.7061216622819051  0.3779384907475898
  0.5433160213716290  0.4402283993020031  0.6140040437109805
  0.4649645342093012  0.3455485370002332  0.6121873444576303
  0.2448869611512783  0.8868536273143190  0.5082299847861002
  0.1886243143221514  0.7989925867385684  0.4813695110614807
  0.9202165849699927  0.0051754488592973  0.3485678664122992
  0.9125449178016117  0.0982994720198254  0.3804222198987312
  0.6436745360114206  0.9929955523760411  0.6826521828334334
  0.6935884872148865  0.0972399810081688  0.6795672535226515
  0.1914388387435870  0.0681223242021851  0.9082758481079187
  0.1578606082128845  0.9622806478439410  0.9019240993821904
  0.4512772794853702  0.1464297037001253  0.9173166147543840
  0.5576869720750030  0.1511518776814406  0.8794107767560330
  0.9307460256465424  0.6762147453632117  0.6170377721143119
  0.9824958104795742  0.6735747920149525  0.5622039886153841
  0.8225404147303080  0.8582283650544400  0.6159936393230899
  0.9430439935614292  0.8373947141401210  0.5900497066239685
  0.7666853004413786  0.6902008590504426  0.4340701724682522
  0.8307157535546040  0.6481968090148263  0.4806916588144469
  0.9608335142642809  0.5000578393899708  0.3846443168857746
  0.8883236271856656  0.4338507142590696  0.3502209989183057
  0.8335003640243823  0.1739766087254234  0.8658213394045222
  0.8636963357680103  0.2799538011421252  0.8717319841025069
  0.6757881542403515  0.2676956808803215  0.3444638449873355
  0.6322626337609828  0.2302351305971479  0.3974539853151442
  0.2425545739446554  0.0800751168415134  0.6311215669155283
  0.1151571807905052  0.0457981029546091  0.6467332162006586
  0.1387106334254775  0.9034491060986708  0.6639434384242350
  0.9999944810741442  0.9201250437749061  0.6526631918534969
  0.7869550661661228  0.7844925765599879  0.9027305509929809
  0.7085542930653718  0.8668531420976771  0.8828180254820116
  0.4057340089053635  0.4180768872275221  0.3447395536638982
  0.6486001564790269  0.4187076571954438  0.3526388236944050
  0.7297562568137472  0.5755597699223810  0.3509471412340281
  0.3868446098655248  0.6356633251316623  0.3350267564479229
  0.5956290354570986  0.6580809757993824  0.4084449019766524
  0.3801207284124521  0.6828759092778074  0.3963751836879007
  0.5779244811892251  0.7106813231738383  0.3495787111499893
  0.4734911817610416  0.4056142210414385  0.4035433107309661
  0.4629507486082805  0.4551622632467316  0.3725398924425557
  0.5853128668395027  0.4762813351438964  0.3500735910579345
  0.3907138713896695  0.5360774818972915  0.3902991063202894
  0.6319473659391497  0.5674370286200520  0.3491090958297585
  0.4257480644047967  0.6298755563606857  0.3738467097728039
  0.5610100336746112  0.6466638590411032  0.3705452215218359
  0.7975863224010239  0.7818058738210999  0.3881286655204941
  0.2553835145014579  0.1090708368096253  0.4813092417717339
  0.6363299400614606  0.8850515562194681  0.7122215652103284
  0.7151640149499212  0.5705407997355745  0.8851665872229592
  0.3796351673116065  0.9756896077041347  0.8214781441660908
  0.1298618702798379  0.5086962805726054  0.9169020441415069
  0.0306347697694432  0.8616155456805111  0.7714461250706991
  0.3330375200379467  0.2169405472134335  0.3789681813003401
  0.5790532823529650  0.3963198318066116  0.8116991067090624
  0.5871112179272329  0.2196774673986353  0.7707539052220849
  0.7591341000000030  0.3796973715490334  0.8817015695430934
  0.3448147869690171  0.5583011295300130  0.6814155614994786
  0.5650987843139276  0.3698614107384938  0.5017168711013223
  0.5016864327319328  0.8739703553348026  0.3798196389566009
  0.5491277075036846  0.8092219637859733  0.5502488006363740
  0.9197075071782357  0.2096275275523535  0.3752159608626472
  0.5316854409263959  0.5540566455386996  0.4835954070715320
  0.0132770191158126  0.4133332113009621  0.7138826092268156
  0.9835491059460588  0.5663590181910394  0.7732785353896735
  0.6587613492024951  0.0227402492075050  0.3758572037144849
  0.4279230429561632  0.3426847553380876  0.8833735478641599
  0.1940939722599574  0.3344649778377023  0.8753445962349722
  0.5671377084466122  0.9298060518574561  0.8807518151009547
  0.9608782950895026  0.9522751684715363  0.4809993120804976
  0.0772261098846209  0.5855877916567359  0.3741336886199569
  0.2164252777856571  0.6673580941168997  0.4782205059794943
  0.7702334374965284  0.1932931239999412  0.7014445205609184
  0.9558095922266202  0.5864699263006802  0.8734060895749762
  0.5541136063859254  0.5517264589241921  0.6280279797253525
  0.3561080245377303  0.9214318071568772  0.5531820304655335
  0.2342117350115317  0.6761276971655273  0.6146223730371807
  0.4011933053096838  0.1090009208070230  0.6634535591880089
  0.8325339271404204  0.1996712252095569  0.5377896270486769
  0.1755758846501772  0.0643540042563723  0.3770507595621440
  0.7715515435169906  0.6404443866985028  0.7451639752985284
  0.7809850703561706  0.6102264545460111  0.6481272840568681
  0.1830853677433080  0.3877483240986905  0.4773865133558040
  0.6973245775927982  0.7960065907940962  0.6307151690422518
  0.5842665993496121  0.5823405123969830  0.7996423752394017
  0.5417204904802253  0.0239653051975461  0.5028791540915154
  0.0474321744430850  0.1036544968024732  0.5334333329310273
  0.5389004698206840  0.1577560961216946  0.4248238931415176
  0.2204304135239556  0.6875949620090066  0.8866754839364758
  0.7084312133727098  0.1028273655216873  0.8843258772790495
  0.1501157780061132  0.7006154996325209  0.7910584610047504
  0.7342469536528915  0.0349532153842948  0.5698306100818725
  0.2526430541410531  0.3860582712024533  0.6998462834884832
  0.3798032981362823  0.6737911986896737  0.7617479566854238
  0.3823271526539643  0.1298847891676556  0.7628135849013481
  0.4546908037580624  0.7381021990555566  0.8844448111653794
  0.1135324567655564  0.1765056536528880  0.9140743135582385
  0.9053476390533373  0.4534335068490539  0.6251905463462116
  0.9599468178839834  0.2484440876082201  0.7623579266797955
  0.9766011401623492  0.4423981536605394  0.5247216776568695
  0.2058259177522218  0.2641271903030575  0.7796034148345240
  0.7667154846998280  0.3018597748741340  0.6174739127887825
  0.3271562749580619  0.2609483011014057  0.6215066933009744
  0.9771026493639278  0.6241444556195959  0.5057786107273492
  0.4300539615004201  0.6466340337622153  0.5556887104607579
  0.4059312427613202  0.8547052366455311  0.7372505615771152
  0.0527329807381029  0.8944355600131858  0.8754700981677389
  0.2799717916387893  0.8535317853240774  0.6466834333941434
  0.7989022659671495  0.8139383807948521  0.7773375880876126
  0.3502582251479910  0.2681880060653125  0.5111569077979424
  0.0396711258287886  0.7742132595107244  0.3759059416045216
  0.5418054569152034  0.3738120116910910  0.6023414323459729
  0.1863024690804197  0.8670663581611686  0.4819423118839714
  0.9145732999694051  0.0278703358984473  0.3835867121356680
  0.6411281559277316  0.0509471252295894  0.6622085038853339
  0.2270244576145642  0.0049077843215570  0.9105426451344175
  0.4706351201958892  0.1662399313819081  0.8828329901787226
  0.9936030769753340  0.7036342340226562  0.5957874549631936
  0.8966775486972648  0.8902075839669313  0.6033688837919834
  0.7495228013938963  0.6614536599526919  0.4669249961644797
  0.9102663216466135  0.4433275925840220  0.3855588800336525
  0.8997146257108489  0.2198410902658364  0.8618232650467976
  0.6940643172712172  0.2712030643164222  0.3806651256615556
  0.1565022264804018  0.0917231367472759  0.6248484854732590
  0.0664570872880214  0.9380480942753366  0.6757585329582239
  0.7853513359686924  0.8333737810182393  0.8773359084955822
  0.2953621593573734  0.5234269858153279  0.4151580425301871
  0.6795501039680392  0.8678745538579165  0.4674488725047055
  0.8010793168705886  0.3501138161423756  0.4650176130881672
  0.1227077505160326  0.3302206325686163  0.3773106452177454
  0.2538971875540558  0.8795933914607591  0.3800680305309379
