combine
1.000
11.0985002518  0.0000000000000000  0.0000000000000000
0.0000000000000000  14.4173002243  0.0000000000000000
0.0000000000000000  0.0000000000000000  26.7964000702
Pt  H  C  O  
96  170  6  81  
Direct
  0.4999999886561249  0.3333300219343480  0.0018699899937576
  0.1249999521128992  0.1666699702868031  0.0018699899937576
  0.2499999943280624  0.0000000000000000  0.0018699899937576
  0.3750000365432257  0.1666699702868031  0.0018699899937576
  0.4999999886561249  0.0000000000000000  0.0018699899937576
  0.6250000308712881  0.1666699702868031  0.0018699899937576
  0.7499999829841874  0.0000000000000000  0.0018699899937576
  0.8750000251993506  0.1666699702868031  0.0018699899937576
  0.0000000000000000  0.3333300219343480  0.0018699899937576
  0.1249999521128992  0.4999999922211510  0.0018699899937576
  0.2499999943280624  0.3333300219343480  0.0018699899937576
  0.3750000365432257  0.4999999922211510  0.0018699899937576
  0.0000000000000000  0.0000000000000000  0.0018699899937576
  0.6250000308712881  0.4999999922211510  0.0018699899937576
  0.7499999829841874  0.3333300219343480  0.0018699899937576
  0.8750000251993506  0.4999999922211510  0.0018699899937576
  0.0000000000000000  0.6666699625079541  0.0018699899937576
  0.1249999521128992  0.8333300141554991  0.0018699899937576
  0.2499999943280624  0.6666699625079541  0.0018699899937576
  0.3750000365432257  0.8333300141554991  0.0018699899937576
  0.4999999886561249  0.6666699625079541  0.0018699899937576
  0.6250000308712881  0.8333300141554991  0.0018699899937576
  0.7499999829841874  0.6666699625079541  0.0018699899937576
  0.8750000251993506  0.8333300141554991  0.0018699899937576
  0.0000000000000000  0.5555599783168760  0.0864100026098289
  0.3750000365432257  0.7222199606033073  0.0864100026098289
  0.6250000308712881  0.0555599860957249  0.0864100026098289
  0.4999999886561249  0.2222199683821562  0.0864100026098289
  0.2499999943280624  0.8888900002512240  0.0864100026098289
  0.6250000308712881  0.7222199606033073  0.0864100026098289
  0.4999999886561249  0.8888900002512240  0.0864100026098289
  0.6250000308712881  0.3888900080300730  0.0864100026098289
  0.4999999886561249  0.5555599783168760  0.0864100026098289
  0.7499999829841874  0.2222199683821562  0.0864100026098289
  0.8750000251993506  0.0555599860957249  0.0864100026098289
  0.3750000365432257  0.0555599860957249  0.0864100026098289
  0.2499999943280624  0.2222199683821562  0.0864100026098289
  0.1249999521128992  0.0555599860957249  0.0864100026098289
  0.0000000000000000  0.2222199683821562  0.0864100026098289
  0.1249999521128992  0.7222199606033073  0.0864100026098289
  0.1249999521128992  0.3888900080300730  0.0864100026098289
  0.0000000000000000  0.8888900002512240  0.0864100026098289
  0.8750000251993506  0.7222199606033073  0.0864100026098289
  0.7499999829841874  0.8888900002512240  0.0864100026098289
  0.8750000251993506  0.3888900080300730  0.0864100026098289
  0.7499999829841874  0.5555599783168760  0.0864100026098289
  0.2499999943280624  0.5555599783168760  0.0864100026098289
  0.3750000365432257  0.3888900080300730  0.0864100026098289
  0.6235641167983560  0.6204325761992171  0.1701550143174127
  0.7444192352800141  0.1149706364792358  0.1735355400881389
  0.4972755306740569  0.1186444753933153  0.1718212139144867
  0.6233837166132341  0.2832931192565427  0.1720363151961850
  0.1309049797033947  0.9460019451985991  0.1727807273055632
  0.7489989451999878  0.4493240373521130  0.1712517161886720
  0.8720113745395807  0.6176657894028399  0.1727513892900857
  0.8732331492922371  0.2838845722517178  0.1703036618778897
  0.5081857122799330  0.7821933903958455  0.1713286752426717
  0.2527752531829698  0.7779615172607376  0.1709019210491964
  0.4939875468319084  0.4468516591019936  0.1703384029810812
  0.3761686103149744  0.9394974192165474  0.1725663090521803
  0.0017495674423984  0.4454818846093522  0.1708035110727409
  0.3706907911934098  0.2776186108030037  0.1742390797296807
  0.0022186139605670  0.7907802125035893  0.1709476356861174
  0.8795770485401179  0.9518232909286785  0.1687473969471247
  0.1337883619599126  0.2793543416132577  0.1697708752363035
  0.0089048145296903  0.1131410371166907  0.1721186424526157
  0.2594557973482029  0.1146405075004428  0.1693331905969761
  0.1228125532167229  0.6203333069964029  0.1685600154374127
  0.7562229185910772  0.7892626736537619  0.1719787203403104
  0.2504718882219379  0.4480694904800492  0.1731483364013445
  0.3758345585858321  0.6141654753416161  0.1723014862744412
  0.6239932987501452  0.9485149432728804  0.1686322426617761
  0.5009636543908953  0.6859550924403510  0.2591206315777392
  0.6208299508559731  0.5115614947983850  0.2548593009474734
  0.4889800031963630  0.3513217532754767  0.2563926470309906
  0.4983187732327191  0.0101060706327265  0.2560801972101913
  0.7455191626056021  0.6707930558940383  0.2571663787615844
  0.8805152965253186  0.8548801640286585  0.2583385965825495
  0.3807766436023283  0.8453815353277605  0.2609011946599071
  0.7394399156110311  0.0187009768060158  0.2568676230489130
  0.6077697837332583  0.1848763935641365  0.2580948491954793
  0.7408077088854005  0.3488163630957593  0.2569407843800942
  0.2429937901891394  0.3556462837999167  0.2593944097711078
  0.8714213111930543  0.5103825203208091  0.2567121184591515
  0.2477778390421715  0.6785729453639786  0.2594707813096219
  0.3647867034506201  0.1848971928258107  0.2601247104140573
  -0.0106656896890913  0.3538614802236806  0.2594733562263949
  0.1345858071371171  0.8456956167944395  0.2605125949945521
  0.8538357706810967  0.1850329979397737  0.2584591384796528
  -0.0034616195096963  0.0255695357705502  0.2579245990690426
  0.2482185567868241  0.0093030507038992  0.2565667181968106
  0.0096863968338933  0.6870601128569439  0.2606658679487265
  0.1195115097542012  0.1831177924317784  0.2602522738214943
  0.1239314571423218  0.5234205465029355  0.2573158965247729
  0.3711449986706031  0.5191360068083340  0.2604083189166954
  0.6300353777588945  0.8475383649918601  0.2594232366768853
  0.7965148354496161  0.6120622817111686  0.3687934860619597
  0.8789532835229592  0.6477817239498769  0.4475362974273765
  0.7449081714224555  0.7617257714582417  0.4278973573077580
  0.6058845826317305  0.6838069394908965  0.3681934954080703
  0.5265967371809651  0.7586735982000452  0.4446384611920400
  0.5125686351790979  0.6505139129094719  0.4715604135815430
  0.7205261873110335  0.7433945384403879  0.4914434574719242
  0.7730615455911251  0.5806536389379002  0.4839887906929284
  0.8133068290408020  0.5078653661494037  0.4036144724689236
  0.4683958288019038  0.6243136907303337  0.3866998185485242
  0.7645809389988304  1.0558333114367175  0.4422592679670926
  0.8682320436977222  1.0058978395037292  0.4770443293879584
  0.0281243059529035  1.1567744852250756  0.4349653427238522
  0.0218060396728602  1.2570332504454678  0.4520787267119491
  0.5486509630355171  0.8734487094591535  0.7363203151658548
  0.6031734195720982  0.9586564795886435  0.7525416410104184
  0.5306801835720799  0.4849222570059538  0.8610872851335132
  0.3922638641192917  0.4937964558926745  0.8635190699900345
  0.2549845095909267  0.0266879766054592  0.7852700097130227
  0.1639360183467055  0.0731840073026730  0.8167788782994030
  0.1122488065266252  0.5563149626225822  0.8648814787428655
  0.0538343525921980  0.5738422725397390  0.9165074354712266
  0.0282415046527719  0.8095240048846709  0.7564584552849120
  0.0777676289514899  0.9133470346553281  0.7564005823245167
  0.5306290391933692  0.0413303278026820  0.3467144276865791
  0.6638797060355084  0.0843394754206860  0.8802615442001775
  0.6238657361004286  0.1838060609734347  0.8956603022616711
  0.8330777907402812  0.1743519845319755  0.8129857451347345
  0.7814059900655018  0.1690903240601944  0.7610427679268409
  0.5277148002271850  0.3985986645137661  0.6238362624646107
  0.5140442473905175  0.4336406825157550  0.6812022574330732
  1.1701442328835141  0.3579639864682484  0.4528623314217232
  1.0998617048749670  0.3715069513758464  0.4996580762200894
  0.5691928016828627  0.8961290040713770  0.3598969422547519
  0.6978171588673819  0.8675124197052821  0.3670959392242937
  0.7095436092388087  0.9076521849454208  0.5916844218836766
  0.6990098748920407  1.0151448796448019  0.5906009210356545
  0.4195818457583719  1.0048927348742525  0.4727009534234596
  0.3006928906055349  1.0328526353014194  0.4481592952202242
  1.0724851959046922  0.7524089816009006  0.4945902723194072
  0.9356064082816872  0.7643104912060619  0.4980801816936145
  0.0189662450713429  0.5011463241933566  0.7433909819495885
  0.0864212019677561  0.5239569029066793  0.6982906739815794
  0.7043496637694061  0.6073440192042017  0.7834375955166620
  0.7279010552159764  0.5364921128758380  0.7379231947574223
  0.3466305488325835  0.2125736583146448  0.3546165563734650
  0.3283635375967979  0.1045363341646841  0.3510875410299016
  0.5583126993212472  0.7818215548013445  0.8951093517734966
  0.3604883594205551  0.2408487372446733  0.8848281102455952
  0.3128414539736470  0.2489815010822727  0.8277600961581123
  0.4054167615097589  -0.0085068040057378  0.9124456648820854
  0.5197623176576878  0.0676620422147978  0.9055612940891163
  0.1575427632050036  0.9230024381729278  0.6099893907606524
  0.1456239941462250  0.8536259061635472  0.5661905849648990
  0.4002020605873876  0.4493390859115953  0.3701729749374489
  0.2759984901746704  0.4995917515374981  0.3680587500918883
  0.2810539715034112  0.7790931898933502  0.5045024551388966
  0.3159634130144084  0.7344503074128163  0.5581799663617414
  0.1865931148457768  0.2691695737568938  0.6643208377642026
  0.1199616386713213  0.2030308475969967  0.7000142056193743
  0.8846390931970874  0.3774855532263316  0.7815745971635542
  0.8079297397453070  0.4675275870331867  0.7910355977022772
  0.7999501502160249  0.8221787048188854  0.6528778450041042
  0.6744196053954267  0.8382215354460898  0.6799631728167435
  0.6828855834796963  0.2656761532262517  0.5532012762671579
  0.6207954716208226  0.2407028065317612  0.5014052626771265
  0.3026516706665143  0.6500541612294155  0.6295403238161197
  0.1941307537160766  0.5945638772266182  0.6067854961152862
  0.6593173056434565  0.1537941036812706  0.6323298125573006
  0.1521006177051912  0.3175193292211728  0.5715328340104788
  0.7583233540977771  0.7306853323512226  0.8171794277975400
  0.7100831594090247  0.7890851323138316  0.7710840024171122
  0.8873252371285764  0.7184621459599884  0.7502922126863865
  0.0053494348202921  0.6463420599089619  0.7439119315645901
  0.3869352692408612  0.5889798378262104  0.5624010836761447
  0.5124580036007635  0.6088871434475674  0.5544940722400963
  0.7330117929204514  0.0754603127336084  0.6801651468463079
  0.7788325138252892  0.0003611833158072  0.7162261804839800
  0.4347825066470031  0.6056719056097738  0.6885531383231915
  0.4917010419596952  0.6947763097987608  0.6593178214504891
  0.5640055099503006  0.1138896746169217  0.4223261615497867
  0.9761874069825661  0.9511651714643972  0.5567802059946123
  0.8358184818255535  0.9802765403178106  0.5505810604987688
  0.7556031561417421  0.3015219922779312  0.3604379599460097
  0.6957724686583314  0.4063163583932665  0.3525211375615014
  0.2554088247319960  0.3758894156595204  0.8708732419192391
  0.2446099434794987  0.4511745500614920  0.9149879531828099
  0.9317140730904533  0.6638496254498782  0.8807727783795491
  0.8315471708353761  0.6952948859387927  0.9155590511795523
  0.8992430122963111  0.4060935016274356  0.8589667174881901
  0.5753981805662691  0.3074706653766190  0.7157485525725266
  0.6340607532048026  0.2771844142819762  0.7690161897126130
  0.5272964794635984  0.5274711113376450  0.7545510986449863
  0.4006989338472774  0.5111982311901838  0.7644308911360090
  0.4995957926838562  0.1321962388552908  0.7584126882588493
  0.5430790376494750  0.0869804285469741  0.8086121473046912
  0.4157260376555556  0.7035566285360122  0.9249148342900904
  0.4649666080841021  0.6297242208009028  0.8849017257497237
  0.0560148358242523  0.1340427500942764  0.8861454857291496
  0.1887835790570162  0.1757153695135041  0.8781282410419086
  0.9473167958521990  0.6331910491475691  0.5635342105558918
  0.2801276005193378  0.2014571825871109  0.5931344192675868
  0.3370989121159160  0.3006656669043920  0.5985493826999833
  0.0248912817527031  0.5477815349429228  0.6187075897682797
  0.0881968390405943  0.4522536871161381  0.6093266834584223
  0.4057245178752594  0.2786077268148882  0.7545927155449087
  0.2598252290558190  0.2712107421963496  0.7445372611631967
  0.9954409103165273  0.3222747885119797  0.6961545486569073
  0.8755195478798196  0.3774115860699702  0.7017443363786758
  0.4656091013073503  0.4411948078655508  0.5694698251154341
  0.5417724422743342  0.3599695915642194  0.5519660966529825
  0.1079777129171701  0.9716172316568467  0.4192484426739696
  0.0907001683075819  1.0115570213429532  0.4729999385027617
  0.6515053150561753  0.6288720640996578  0.6019093550195536
  0.6571471060260718  0.7344911070348571  0.6166021470688051
  0.2366273732411792  0.8375793494226348  0.8334704744850193
  0.3594815483157675  0.7983737982995954  0.8501192738734168
  0.0568550366791820  0.8363965121136594  0.8969638455775081
  0.1336225670814828  0.7425505960093708  0.9009059991139257
  0.3478874283012970  0.7916836930164003  0.7069831435032237
  0.3470413739167439  0.8305653030598102  0.7608335599890091
  0.9085443161173619  0.8293451871971780  0.8661641085442552
  0.2794628853026305  0.3431712785283432  0.3815751481174122
  0.2739150933935378  0.2622097266746449  0.4225538574411756
  -0.0758438825068712  0.3887091637347169  0.3598970494407916
  0.0606816917259404  0.3555388139285888  0.3719025616833769
  0.7155444859869260  0.4464106131987334  0.6656487769204615
  0.8186900302882236  0.5167590200932873  0.6605365026395463
  0.3830324128623182  0.8935787136613856  0.5327123009622038
  0.5157502392155777  0.9221097910684229  0.5440846209007650
  0.8352699806261223  0.9573654117943677  0.3914914685486595
  0.8276462581248520  0.9240360268107565  0.3378486936111949
  0.8153296432130465  0.2214545067472935  0.5945782537938158
  0.8116991423268148  0.2567509479660382  0.6496877691776477
  0.2023155089838226  0.0379735366179892  0.8984179897311226
  0.2356727835795462  0.9164191790936707  0.9080904019813130
  0.7647734607226239  -0.0225147971776915  0.9071327804413757
  0.0079470235165959  0.8162185923038412  0.6178850148200680
  0.1749323575124596  1.0035123971417790  0.6759514894929246
  0.2751640913739408  0.9333242290273058  0.6940133475347532
  0.9948192553412183  0.8858619650212703  0.3808174987896363
  1.1671243445526953  0.8029022595429813  0.4172661649664849
  1.1930703026251201  0.6984255087459621  0.4291027132367403
  0.9756461924162985  0.0787077264568162  0.7081474348937936
  0.0914034683321716  0.0811528866498864  0.7379173936274350
  1.1816087123909469  0.6478990005254974  0.3464377348031851
  1.0888744469812510  0.5795444502790523  0.3716407625655244
  0.3740199788189187  0.1533824153341003  0.4618276486012934
  0.4221620734873712  0.2447153093374180  0.4774289321134365
  0.4163897549716682  0.0263728251256876  0.5821291387773930
  0.3512167149401839  1.0376547651539494  0.6330211785636097
  0.6930461006344093  0.3161729811048116  0.8818911013528401
  0.6165135426735044  0.3280528481628145  0.9298665866580349
  0.8727871946418150  0.1535504582382715  0.9002355078071482
  0.8828403640312471  0.2591139764020125  0.8764793510460789
  1.0145414015352052  0.3201935227664398  0.5652321339553337
  0.8945889080814986  0.3875752545183127  0.9218871401413443
  0.9043099071671636  0.6719849570220343  0.6136935346023613
  0.9927054044813964  0.8832539335996437  0.8302026599065461
  0.9881127014725613  0.7558888698129419  0.6711834873372139
  1.0940651639423697  0.9001685478482238  0.3470425718506072
  0.4580252893786756  1.0033267409469049  0.3936704121361204
  0.5561637209675159  0.8897470930777418  0.9003038059738872
  0.5433384676386334  1.0833250790030162  0.6263044337236878
  0.8139749593405509  1.1747064308860429  0.3526637849577929
  0.8751793798197802  1.2009019854992047  0.4107308389659318
  0.6794244226716160  0.1766034272636243  0.4105675392992402
  0.9228020869341292  1.2003882568131976  0.5170361425491508
  0.9401296005924554  1.1186129984806521  0.5543045772972421
  0.8211249347516097  0.9732577646506824  0.8552543872445978
  0.7629185491820614  0.5714238167707988  0.4017727303815272
  0.7820615696785057  0.6233131205004313  0.4513581913508775
  0.6317912449623790  0.5516340079327261  0.3905700886716865
  0.7079118605620393  0.7109418445295405  0.4548783213180704
  0.5596154966787239  0.6403819334315255  0.3962746306474571
  0.5744662575617783  0.6902917310639000  0.4457650942293476
  0.5827524932885454  0.4807791906293986  0.3736514318329951
  0.8477304648233066  1.0254426395714327  0.4419727025896582
  -0.0294993382504002  1.2021102156275225  0.4487930865375470
  0.6326371425149314  0.8967306859372635  0.7426561328673084
  0.4706763303044285  0.5251307041202710  0.8510013403651127
  0.1701988293953178  0.0351623545125012  0.7852928599615038
  0.0622002481991240  0.6005336132216373  0.8812129467032456
  0.0187782884508381  0.8747393459382801  0.7735013288874701
  0.5882193677962213  0.1248458366613082  0.8816910050941653
  0.7664654391588054  0.1966603473319612  0.7931550533362882
  0.9107648700697756  0.1884085259403611  0.8739886052024153
  0.5731244289847519  0.4015070330188019  0.6580195530670920
  1.0854621569383816  0.3564588664414471  0.4634818543484786
  0.6203021220352233  0.8387315894080379  0.3523552331494030
  0.7018543986550491  0.9581062410227137  0.5679027651562607
  0.3855052975293747  1.0411903584694084  0.4440716373253933
  1.0040962043761386  0.7521321003514368  0.5183648938965975
  0.0793429246764384  0.5434108994272808  0.7319154447582338
  0.6956228323865541  0.5428093815171950  0.7733890228167997
  0.3886745503204710  0.1538744198349183  0.3430647337783007
  0.6120911568838534  0.8353069062127210  0.9023893840908579
  0.2857194610583267  0.2477733704247281  0.8651851994806764
  0.4930125619371480  -0.0001041641969464  0.9201427529856988
  0.0951620351613461  0.8963072215156992  0.5867837889607477
  0.3223809237846991  0.4537518336320576  0.3861543705121570
  0.2949754676330294  0.7935009820089566  0.5399907442601487
  0.1526233462602551  0.2647645047348200  0.6989270417270723
  0.8866528019498872  0.4361616095571952  0.7958074688963560
  0.7120350400242894  0.8189886813828413  0.6479030482533925
  0.6673194523916711  0.2869343898747072  0.5198960930835221
  0.2731786722181925  0.6253565267583064  0.5971679900874299
  1.0850092794066462  0.3639490513110102  0.5664454557640403
  0.7491175768412122  0.7285025640790491  0.7797747784500831
  -0.0232616551103947  0.7111444166029913  0.7392493515959120
  0.4563667975390224  0.5576979374923426  0.5480426968334330
  0.8025816495030806  0.0611481839931514  0.7050314814791088
  0.4133407907123295  0.6706380161664037  0.6751477117375703
  0.9213342412945927  0.9951844597171541  0.5391667565475398
  0.7559086623834029  0.3625088648976758  0.3377153886526690
  0.2466936548977373  0.4462488033686192  0.8790726041665710
  0.8522038778316946  0.7005041583498240  0.8791023235877586
  0.8682012052878259  0.3682337863750607  0.8877349047999361
  0.5616537413772661  0.2782825384212874  0.7490279456874146
  0.4510412988537010  0.5168059310190140  0.7360601172966734
  0.5073002541750502  0.0745029768742401  0.7758858845118304
  0.4520255036158020  0.7032322569042057  0.8899777776426520
  0.1432281029810482  0.1133815580357291  0.8796490597374511
  -0.1073182926230800  0.6149185466747429  0.5915815924105839
  0.2630801650994652  0.2648504913953399  0.6074458153056868
  0.0833737765469643  0.5057178755985851  0.6318880062001411
  0.3206410147463704  0.2739355961557466  0.7715821547011887
  0.9091476696829857  0.3116434391320411  0.7063011418704623
  0.4661997435248821  0.3739375055818924  0.5735495996864063
  0.1299981907614953  1.0257372437923284  0.4404048654402673
  0.6143169969288624  0.6876367053098074  0.5988269208685626
  0.3219280271512837  0.8376510703886902  0.8228107066038233
  0.1374447164564059  0.8094915437724850  0.9096745818632668
  0.3718428698445704  0.8475583999911670  0.7275329905967661
  0.9662457477676550  0.8801637775505307  0.8675713520322316
  0.2572297375167412  0.2747570230328841  0.3864469276123444
  0.0090832984559017  0.3949730619885514  0.3519456698136098
  0.7879009924410082  0.4721229768127747  0.6835040119388432
  0.4433390545179282  0.9418743104976377  0.5273094582474839
  0.8518983925388102  0.9007960029999692  0.3722938461683276
  0.7598071751480427  0.2365012508481317  0.6209146075372735
  0.2300697638301062  0.9577543171312040  0.6648003453311272
  1.0811819261844744  0.8832240340072586  0.3811252272971372
  1.1848675731810916  0.7614152622831291  0.4458417171635709
  0.0608539469637317  0.0978799927341123  0.7045690142869661
  1.1697725679372228  0.6070685402769261  0.3753345093128748
  0.3479556553394392  0.2112158346794676  0.4792497300815284
  0.3967974284981220  0.0746116686178829  0.6064011102099776
  0.6155980764060373  0.2999690086296984  0.8935632152480133
  0.9550215845047135  0.7748531315572571  0.6403185377308011
  0.5321275797729671  0.9964016022907979  0.3729422515270504
  0.6315133536770677  1.0870919835798152  0.6330806063671890
  0.8098392593397732  1.2149979305193044  0.3828848163343392
  0.6309946231126327  1.1511492468837592  0.4382537965672472
  0.9310442711233996  0.1862793591946856  0.5545481357671448
  0.2496696421077789  0.9834182263544001  0.9199365971406774
  0.7468471004769923  0.9882926860387139  0.8716936601299841
