combine
1.000
11.0985002518  0.0000000000000000  0.0000000000000000
0.0000000000000000  14.4173002243  0.0000000000000000
0.0000000000000000  0.0000000000000000  26.7964000702
Pt  H  C  O  
96  170  6  81  
Direct
  0.4999999886561249  0.3333300219343480  0.0018699899937576
  0.1249999521128992  0.1666699702868031  0.0018699899937576
  0.2499999943280624  0.0000000000000000  0.0018699899937576
  0.3750000365432257  0.1666699702868031  0.0018699899937576
  0.4999999886561249  0.0000000000000000  0.0018699899937576
  0.6250000308712881  0.1666699702868031  0.0018699899937576
  0.7499999829841874  0.0000000000000000  0.0018699899937576
  0.8750000251993506  0.1666699702868031  0.0018699899937576
  0.0000000000000000  0.3333300219343480  0.0018699899937576
  0.1249999521128992  0.4999999922211510  0.0018699899937576
  0.2499999943280624  0.3333300219343480  0.0018699899937576
  0.3750000365432257  0.4999999922211510  0.0018699899937576
  0.0000000000000000  0.0000000000000000  0.0018699899937576
  0.6250000308712881  0.4999999922211510  0.0018699899937576
  0.7499999829841874  0.3333300219343480  0.0018699899937576
  0.8750000251993506  0.4999999922211510  0.0018699899937576
  0.0000000000000000  0.6666699625079541  0.0018699899937576
  0.1249999521128992  0.8333300141554991  0.0018699899937576
  0.2499999943280624  0.6666699625079541  0.0018699899937576
  0.3750000365432257  0.8333300141554991  0.0018699899937576
  0.4999999886561249  0.6666699625079541  0.0018699899937576
  0.6250000308712881  0.8333300141554991  0.0018699899937576
  0.7499999829841874  0.6666699625079541  0.0018699899937576
  0.8750000251993506  0.8333300141554991  0.0018699899937576
  0.0000000000000000  0.5555599783168760  0.0864100026098289
  0.3750000365432257  0.7222199606033073  0.0864100026098289
  0.6250000308712881  0.0555599860957249  0.0864100026098289
  0.4999999886561249  0.2222199683821562  0.0864100026098289
  0.2499999943280624  0.8888900002512240  0.0864100026098289
  0.6250000308712881  0.7222199606033073  0.0864100026098289
  0.4999999886561249  0.8888900002512240  0.0864100026098289
  0.6250000308712881  0.3888900080300730  0.0864100026098289
  0.4999999886561249  0.5555599783168760  0.0864100026098289
  0.7499999829841874  0.2222199683821562  0.0864100026098289
  0.8750000251993506  0.0555599860957249  0.0864100026098289
  0.3750000365432257  0.0555599860957249  0.0864100026098289
  0.2499999943280624  0.2222199683821562  0.0864100026098289
  0.1249999521128992  0.0555599860957249  0.0864100026098289
  0.0000000000000000  0.2222199683821562  0.0864100026098289
  0.1249999521128992  0.7222199606033073  0.0864100026098289
  0.1249999521128992  0.3888900080300730  0.0864100026098289
  0.0000000000000000  0.8888900002512240  0.0864100026098289
  0.8750000251993506  0.7222199606033073  0.0864100026098289
  0.7499999829841874  0.8888900002512240  0.0864100026098289
  0.8750000251993506  0.3888900080300730  0.0864100026098289
  0.7499999829841874  0.5555599783168760  0.0864100026098289
  0.2499999943280624  0.5555599783168760  0.0864100026098289
  0.3750000365432257  0.3888900080300730  0.0864100026098289
  0.6197751316971322  0.6130986408399614  0.1691495103717553
  0.7407378034583250  0.1148165708868265  0.1725660655157358
  0.4924530702347449  0.1189636652019761  0.1717245935814115
  0.6166323692419668  0.2842601169803261  0.1750663753866318
  0.1133064059710273  0.9492843402006980  0.1704879492070482
  0.7412037674969493  0.4451630760301805  0.1711995311042451
  0.8601232685336722  0.6125052756490512  0.1708350340458935
  0.8709102012528549  0.2850391020486311  0.1724260874593486
  0.4895072148346247  0.7806361692066689  0.1680139181198005
  0.2482311666166953  0.7796161234719471  0.1708238431620727
  0.4957725843820753  0.4534037832813031  0.1692633979048570
  0.3610640267319077  0.9468519094019766  0.1723294439328594
  -0.0096214206133555  0.4513091901237644  0.1737469065062086
  0.3700282114273907  0.2909887763541869  0.1706261159977477
  -0.0038708543429580  0.7788911875174066  0.1713896025125931
  0.8644970787691701  0.9448448599093657  0.1743847726619318
  0.1191503194393791  0.2907695751687476  0.1701271881281468
  -0.0061041536660787  0.1165952701787215  0.1718542736351088
  0.2530273500822375  0.1215146424534598  0.1692948388707252
  0.1025595396743261  0.6178513169259119  0.1699847411132492
  0.7374368494223004  0.7757998632468001  0.1731085749148310
  0.2372667117138570  0.4495585341058326  0.1687289027688507
  0.3618396167940518  0.6150874077903556  0.1727744131551714
  0.6127407560401745  0.9442483994718209  0.1717771086840489
  0.4750910873336094  0.6753536114957852  0.2581686436527504
  0.5970982050683130  0.5147596487719206  0.2583123079580270
  0.4778190544654829  0.3543023310765530  0.2554210916231076
  0.4774880060700563  0.0211341229675193  0.2619337451266682
  0.7221477673526324  0.6797452480792617  0.2569067159344221
  0.8455685175281206  0.8475448821690389  0.2610418531845644
  0.3461281702883206  0.8494166917228494  0.2590548688448578
  0.7284885659293218  0.0119769818005842  0.2593557410358566
  0.6031761305329774  0.1787997095430646  0.2615877219490880
  0.7278849197115446  0.3444396176359092  0.2610515623171090
  0.2390651669598045  0.3528620100471691  0.2530249994267008
  0.8463372177314311  0.5214861207251471  0.2637750510509990
  0.2252594420849369  0.6892687613073888  0.2593174337894611
  0.3558721669497129  0.1808072080379089  0.2575462153804338
  -0.0259753181384345  0.3548583686546904  0.2614906619636726
  0.0939350464339465  0.8506416500316341  0.2610520418143537
  0.8558406913546256  0.1776987221353635  0.2560405646327847
  -0.0156166330105629  0.0208010734003121  0.2588708268210382
  0.2299042470162734  0.0152600755673507  0.2530215900881418
  -0.0267399304200464  0.6824477115081866  0.2569073312334905
  0.1176207830592500  0.1871594504949009  0.2549422397897873
  0.0970447806518110  0.5189500165842086  0.2598924394678222
  0.3509299652868256  0.5195490910756618  0.2574391915304955
  0.5904404412152180  0.8498225709518979  0.2584426832058532
  0.7122946932237866  0.6020401521548691  0.3626849260997566
  0.7894290405569913  0.6372663844590284  0.4548366969843137
  0.6609333231947551  0.7453429152351401  0.4153342691086688
  0.4784066032920861  0.6493005700486140  0.3493668807927350
  0.4525767133073103  0.7512447310450505  0.4208984689157098
  0.4277828377153923  0.6574107904838465  0.4601304186084266
  0.6199292951211247  0.7271739819726909  0.4810469698142475
  0.6566393224001638  0.5739622691461136  0.4762461721711692
  0.7429600636232514  0.4978705690613105  0.3953725048903902
  0.3789874840357662  0.5903608175582161  0.3833249748656755
  0.7351620585381983  1.0699954469075361  0.4863641873668565
  0.8158065346109757  0.9920518490274025  0.5115106287595331
  -0.0219577613795590  1.2243050522142411  0.4688402289780499
  -0.1074804830235090  1.2725041845960972  0.5051467833044251
  0.5661338440642878  0.8603591363238224  0.8146794955445320
  0.6134300469106919  0.9529913897431580  0.7978731119698657
  0.5034390304486238  0.6072696854535461  0.9080046978384436
  0.3751248721938601  0.5780597788518788  0.8892957109041304
  0.3985206016085518  0.0997535136416171  0.8119291527221034
  0.2606593576488691  0.1097851904569636  0.8298271686661691
  0.1063575766291987  0.6460667916383247  0.8537884084639747
  0.1245342091852310  0.6418767580633713  0.9162922224954205
  0.0629750179702564  0.7404502556038237  0.7866922685873551
  0.1505156328873418  0.8253123694854401  0.7801812485532115
  0.3116522007231586  -0.0521282783882993  0.3448234565498871
  0.7226953811979369  0.0977739681749911  0.8902012842399676
  0.6382246768657950  0.1824481951112115  0.9082735846807478
  0.9818105774095686  0.3173955373064430  0.7139281908458689
  0.9984239710228268  0.2531568115539614  0.7622881729593292
  0.5199251466489028  0.3202148936122436  0.6547607323646384
  0.4255074948468002  0.2820863601040438  0.6973329709978663
  1.2152194578553623  0.3767045799910637  0.4903383672612084
  1.0752683886784176  0.3554463817339846  0.5031908024576438
  0.5111683753379107  0.8727928070465741  0.3452597339180922
  0.6488615139538380  0.8848422637615837  0.3438088291361758
  0.6569559616595475  0.8031589834470698  0.6555871962568770
  0.7001828337697853  0.9076046640788688  0.6543688318043956
  0.3226304811336347  0.9849762259417389  0.4873396666861502
  0.2549711164930642  1.0370084074271197  0.4459159375586534
  0.9894684686896281  0.6883971076687403  0.5279344230396249
  0.9106154470069856  0.7722527266744614  0.5436997413657162
  0.0557662735917513  0.3847805963178759  0.7865897121434745
  0.1518006258212013  0.4050764157048379  0.8304569011435090
  0.7215788679376890  0.4863986288001768  0.7604613317615655
  0.6597071927094408  0.4797903278896208  0.7071391965024715
  0.3492607854895827  0.2498925786276969  0.3506625901943353
  0.2885893743779065  0.1531861867784078  0.3496343846022475
  0.6429462216341073  0.7890693439625829  0.8807066446154854
  0.4713644220129241  0.2956019192703550  0.8698873332213994
  0.3951740271113376  0.2905560635852951  0.8208990688776434
  0.4126706562408909  0.0017434549540443  0.9057174991535666
  0.5473976218917221  0.0547062389094623  0.9083476973897237
  0.1026560752219850  0.9206606090596593  0.6414137831900087
  0.0992691548591275  0.8278417843365323  0.6022574617195418
  0.4015827734271710  0.4033272730493014  0.3753371608518805
  0.2983982625907390  0.3829479676780514  0.3322235459866962
  0.2112759493535807  0.7117514887429783  0.5318637919856086
  0.2621082664505238  0.7044461703365209  0.5839338716472303
  0.2655302896012500  0.1510936134303720  0.7157955758031359
  0.1622861373011083  0.1575298774781720  0.7520376693849531
  0.8069105362093910  0.2903841600415357  0.7787578602622440
  0.6804291417910476  0.3384452598466237  0.7749812353710318
  0.8169906742155920  0.7461786303213593  0.7278368303468322
  0.7330045483920758  0.8020689661376216  0.7649573496701048
  0.7931302188484760  0.2205278233605189  0.5749281434610636
  0.7172993500999254  0.2307769567697647  0.5207307714635063
  0.3419676571331751  0.6072530613494301  0.6401393872931519
  0.2540331820997833  0.5440266116939254  0.6098433156837859
  0.8340756286957477  0.0389237326454611  0.6508412917896038
  0.1645320084399550  0.1216323700011694  0.5672913659773755
  0.7979922736284674  0.5646001827013504  0.8222860256405906
  0.8012842553801526  0.6333542325635623  0.7742298621624196
  0.9896768268594291  0.6046844518924679  0.7860426187069833
  0.1057086314170894  0.5451056909014027  0.7878083421278923
  0.4125286428368957  0.5275590064900165  0.5490743826541989
  0.4538031923802636  0.4513751796838900  0.5059112079676760
  0.8960498868562994  -0.0245114979158421  0.7157010251622526
  0.9832488466565698  -0.0838196031780752  0.7531116874479989
  0.3796274859043834  0.6164801272931484  0.7268551687418745
  0.4366530576700239  0.6892665716741352  0.6908658901569320
  0.5471870603701670  0.1783732049059734  0.4968804002820900
  0.9461730816915455  0.9147356839924803  0.5801453005468571
  0.8091285347985254  0.8950130557697052  0.5856757256976893
  0.6793447171997117  0.2732598223251109  0.3456822015842840
  0.6453816547454970  0.3812508490761401  0.3607018292598532
  0.3073510991133029  0.3718134004010636  0.8873561349773701
  0.2266645199464679  0.4547881115043057  0.9156859421981627
  0.7332488980103552  0.5641665829078562  0.9110990313228958
  0.7217198453548626  0.6468920555514633  0.8736437208979643
  0.9170684152346869  0.4154374519790376  0.8632189776313993
  0.6027710774809427  0.1887715032189489  0.6968087715843928
  0.6947091611904520  0.2140344532535268  0.7352364895577913
  0.4925638940732902  0.4848378817220189  0.7618100575943385
  0.4232786269782801  0.5290158575975906  0.8031032195452432
  0.6272692882419780  0.0999702835951715  0.7697414917550174
  0.6222565667356666  0.0977607533707603  0.8296096313930753
  0.4509020001678493  0.8169329418588738  0.9085864382274198
  0.4572577079841878  0.7349972480936179  0.8710912166428847
  0.1120219250432832  0.1906703578848077  0.8849961362411842
  0.2388287011815050  0.2099331827534966  0.9103107150287422
  0.9448755341695129  0.6190453520595484  0.6004828838592535
  0.4075459373681067  0.0758359203796830  0.6108581249987968
  0.3849745096421515  0.1633099786069217  0.6429463374806007
  0.0583917852319636  0.5001286936195497  0.6119278817991469
  0.1234470702992321  0.4425778993868323  0.5701873654510623
  0.3441101255352588  0.3888985413683601  0.7576200698383018
  0.2852942484266259  0.2887231649295911  0.7494941247998056
  1.1195443975130621  0.2485613075921080  0.6733670140552326
  1.0748351923554083  0.3283913217066876  0.6351177693389684
  0.5758961928449194  0.4279655631364627  0.5736625507840191
  0.6653115136436960  0.3401451635885665  0.5886316649392477
  0.1138406254390170  1.0926242450475736  0.3364338493223845
  0.0973840082874899  1.0917584405830898  0.3937065711797778
  0.6044348964637827  0.6552657584238304  0.6593317407605094
  0.6472882615500126  0.7148860623661195  0.7104278547128706
  0.3007204734494377  0.9431717953116441  0.8098471885569974
  0.3611733310408213  0.8485210150150677  0.8267826978011917
  0.0204203081009295  0.8585262686794725  0.8930945909825484
  0.1124734453465952  0.7806504581024256  0.9023852148405218
  0.3282859547089784  0.8019237369499495  0.7012188875660326
  0.3408583622896665  0.8793301539932058  0.7403805355616906
  0.8293549007314894  0.8371841788559292  0.8541016540894323
  0.3126349359804048  0.3152939784758284  0.4357785410282107
  0.3628999141885662  0.2751177569927162  0.4867496672735954
  0.0129416661207630  0.3710320708022658  0.3620748084885413
  -0.1064852976696853  0.3163944134014506  0.3511649061944225
  0.6609264035571231  0.4964872654268071  0.6281163099411203
  0.7772799173925230  0.5519422193128644  0.6473505326930481
  0.2753801253556142  0.8533511504368596  0.5479491372025336
  0.3643533582606500  0.9265497191689774  0.5664233297770254
  0.7569606711985676  0.9821954425373379  0.4106154636994072
  0.7917544047336343  0.9925988916898496  0.3524374279589382
  0.9560266122694507  0.0897772433162218  0.5882166587454729
  0.9671307649841395  0.1619781285725001  0.6306172165899401
  0.2178340308104150  0.0562033658933077  0.9136675179263087
  0.1934707363142829  0.9394138646271820  0.9107662249617191
  0.8613712556117238  0.0236292236826566  0.9185172412495742
  -0.0125574876008492  0.7898783026593258  0.6629559612619789
  0.0996298614329144  1.0099337397204651  0.6997557370981604
  0.2245287610365056  0.9724889674467982  0.6880762913823142
  1.1655936071904787  0.6729970957285172  0.3606672994425055
  1.1607315277494978  0.6349411390331549  0.4539177120335186
  1.1260293305551032  0.5678809261459711  0.4970368509541585
  0.9866129720116100  0.0855312085005757  0.7730135880840130
  0.0112433186708954  0.1605724773420539  0.8204287143499090
  1.1932684236009379  0.4226727599269280  0.3841706404491357
  1.0872546997368353  0.4244597490857288  0.4282798292395529
  0.3766304508595263  0.1264254090254611  0.5040354405821943
  0.3950348403685388  0.1791810311993019  0.5620627233749009
  0.5387631700986109  -0.0931495532247061  0.6247140921073380
  0.4341924220543630  0.9285535048882557  0.6533249231776130
  0.6776981749565796  0.3047201831030264  0.8484339101647960
  0.6602010084120724  0.3663959419251448  0.8945074452689756
  0.9301287303143295  0.1681515646330176  0.8792026091706340
  0.9330375741821991  0.2775901684529368  0.8854826312541655
  1.1599789565992971  0.0201546364076016  0.5528639413237955
  0.8794498369828833  0.4138955019915823  0.9207199682817639
  0.9672696958905698  0.5954719215550518  0.6535750844822077
  0.9593162095007594  0.8378380146818706  0.8261542972415685
  1.0239703364566624  0.7449377222302698  0.7130507969668999
  1.1277990829679858  0.5683069838894067  0.3747062144278941
  0.3561250827073662  0.9305936316416977  0.4005624117710035
  0.7216362490509520  0.7744916632990588  0.9258388584028493
  0.7259864655581031  1.0645470795171141  0.6927141046995666
  0.5380980946530521  1.1636279937296332  0.3689140603029598
  0.6653686708077819  1.1172962911564885  0.3713324006856318
  0.6200093373322204  0.1681534349623844  0.4457028644710356
  0.9300204509096589  1.0618060317907589  0.4570448603661481
  1.0542454657423068  1.0783943370129048  0.4896833823395764
  0.8662730630510826  0.9892490311786147  0.8635563321818731
  0.6892415569535500  0.5616292956744015  0.3969436849328474
  0.6986779133552192  0.6131331020145412  0.4459942370389755
  0.5630638657044211  0.5344110702164481  0.3819900682697787
  0.6190052035080856  0.6968592152410283  0.4421257387732223
  0.4732445259122429  0.6110001356739937  0.3839871825261639
  0.4893945810578406  0.6784484861259740  0.4296417389775921
  0.5314685838154894  0.4507213921679643  0.3744914126677726
  0.7875266155156820  1.0152512768187620  0.4787846921410829
  -0.0418098762420393  1.2849924402472164  0.4819580325404362
  0.6375759555037505  0.8856071612200838  0.7977255811601434
  0.4437688917114018  0.6186859301206707  0.8803840403784479
  0.3158701216257966  0.0773750149920432  0.8068169276194358
  0.1467120861339727  0.6692390381340253  0.8828454475050473
  0.0638910706863295  0.8080616684574621  0.7812772502408658
  0.6406091721579141  0.1248384352547799  0.8899748414086879
  0.9558678128226773  0.3118571354033310  0.7515581286531257
  0.9814093187080356  0.2221729763455433  0.8793337199389013
  0.4844779338837191  0.2655741365672991  0.6688189677101740
  1.1321708769490806  0.4098588386708096  0.5013006874695366
  0.5903554353154481  0.8381736973287398  0.3386585453988659
  0.6758723479222726  0.8541804861456248  0.6333181138489151
  0.3296375472448768  1.0364623823962522  0.4651407261142213
  0.9283693418783259  0.7056045031755537  0.5534928286838831
  0.1185891346253328  0.4262874918870881  0.7976233191774582
  0.6577598298667454  0.4524830947894572  0.7407826958844119
  0.3725124236519685  0.1849969154283529  0.3421162844629665
  0.7222351892545099  0.7643482231108941  0.8895459709943826
  0.3894810780131246  0.2792137442497802  0.8586181596007302
  0.4977598919911753  0.0018723082186014  0.9184782428133192
  0.0493546924694768  0.8729787932200105  0.6203899748118636
  0.3189172081089018  0.3775929802255550  0.3676085109825903
  0.2278310087968781  0.7536034639680622  0.5610977254560665
  0.2026344567262822  0.1938488861312239  0.7244697918542126
  0.7221023919155397  0.2818730737153191  0.7900272821699961
  0.7575834167356394  0.7429995853138377  0.7539155503901691
  0.7787563661403925  0.2610270916434855  0.5425925048144530
  0.3168844461511462  0.5911674264530216  0.6054075540110011
  1.1079617028621203  0.0731676962738159  0.5560836741675347
  0.8267517287312623  0.5728289155469106  0.7870225063012576
  0.0793343616996538  0.6134450747507696  0.7890483747782837
  0.4788675982809513  0.4976672375599619  0.5295058631207434
  0.9628082149808435  -0.0216393679916690  0.7422707293476958
  0.3587308891986811  0.6638732493388658  0.7015135147054735
  0.8708389343805699  0.9135515361191340  0.5580039261553090
  0.7121418792523921  0.3395404596797649  0.3431567329048080
  0.2504640559204532  0.4268315980358093  0.8833504762650505
  0.7263830114697262  0.5782512624623364  0.8742643082326971
  0.8803323900285898  0.3790372929870319  0.8884341389676196
  0.6650897068640277  0.1601483316348227  0.7152729901512082
  0.4165810780290025  0.5163282246112364  0.7662460531716770
  0.5947181147046878  0.0644196621316522  0.7990477689990761
  0.4729949868901078  0.8053580306339047  0.8736401912745914
  0.1978767568657596  0.1657296829591416  0.8901350946587048
  -0.0536348192453712  0.5646921850373886  0.6236587423989474
  0.3555396719354066  0.1317719828361444  0.6138745595343407
  0.1298812881737074  0.4557317215899909  0.6064598087551507
  0.3641628093529580  0.3219352161493436  0.7588824039470398
  1.0466240538775566  0.2810024436941141  0.6593362176193294
  0.6139626073437144  0.3908773351685970  0.6008514836813984
  0.1577233742744744  1.0906645809037707  0.3679640665003106
  0.5862001231422993  0.7079440472632289  0.6820721400418913
  0.2999341903028852  0.8772926315900524  0.8038563716607188
  0.0969477919167947  0.8457913009154981  0.9120586971486274
  0.3217637286462038  0.8710886448998645  0.7051493792075992
  0.9125548956542484  0.8603745831756280  0.8550355793157477
  0.3459034597739792  0.3357909956012624  0.4681136794919624
  -0.0198539380727827  0.3226634227855836  0.3395405596186150
  0.6885910469624521  0.5388855985259349  0.6537486116197269
  0.2940568298469604  0.9195593876969218  0.5447388862966417
  0.7239613074205111  0.9846551619541695  0.3770614232856013
  0.9142513929712572  0.1177094010943645  0.6154951870136376
  0.1613182974257830  1.0140547006754059  0.6730633918306546
  1.1668931493784118  0.6267929414738087  0.3879583911557269
  1.1343002211004372  0.6329528040290960  0.4905851255527207
  0.0352643263162087  0.1377240810282430  0.7858223459843587
  1.1028227138180149  0.4378481239892814  0.3918945804208401
  0.4014686452773073  0.1829653242396897  0.5227353666501462
  0.4657501583839356  -0.0537736095065359  0.6218189384860768
  0.6314057525982818  0.3098443218634501  0.8798361262272358
  0.9609778011736531  0.7351158243092342  0.6852154059686331
  0.3852398194617843  0.9337949317451809  0.3669909718446221
  0.7780201239982458  1.0119821786959000  0.6786659689905229
  0.6235080044421033  1.1755201442038961  0.3776279100509964
  0.6261357200557756  1.1613633381497370  0.4822579034402194
  1.0111489066804256  0.0896774052898502  0.4554705916737309
  0.2544595506083782  0.9909844972444339  0.9155126335489473
  0.8662687420258169  1.0482432672954738  0.8848191009122754
