combine
1.000
11.0985002518  0.0000000000000000  0.0000000000000000
0.0000000000000000  14.4173002243  0.0000000000000000
0.0000000000000000  0.0000000000000000  26.7964000702
Pt  H  C  O  
96  170  6  81  
Direct
  0.4999999886561249  0.3333300219343480  0.0018699899937576
  0.1249999521128992  0.1666699702868031  0.0018699899937576
  0.2499999943280624  0.0000000000000000  0.0018699899937576
  0.3750000365432257  0.1666699702868031  0.0018699899937576
  0.4999999886561249  0.0000000000000000  0.0018699899937576
  0.6250000308712881  0.1666699702868031  0.0018699899937576
  0.7499999829841874  0.0000000000000000  0.0018699899937576
  0.8750000251993506  0.1666699702868031  0.0018699899937576
  0.0000000000000000  0.3333300219343480  0.0018699899937576
  0.1249999521128992  0.4999999922211510  0.0018699899937576
  0.2499999943280624  0.3333300219343480  0.0018699899937576
  0.3750000365432257  0.4999999922211510  0.0018699899937576
  0.0000000000000000  0.0000000000000000  0.0018699899937576
  0.6250000308712881  0.4999999922211510  0.0018699899937576
  0.7499999829841874  0.3333300219343480  0.0018699899937576
  0.8750000251993506  0.4999999922211510  0.0018699899937576
  0.0000000000000000  0.6666699625079541  0.0018699899937576
  0.1249999521128992  0.8333300141554991  0.0018699899937576
  0.2499999943280624  0.6666699625079541  0.0018699899937576
  0.3750000365432257  0.8333300141554991  0.0018699899937576
  0.4999999886561249  0.6666699625079541  0.0018699899937576
  0.6250000308712881  0.8333300141554991  0.0018699899937576
  0.7499999829841874  0.6666699625079541  0.0018699899937576
  0.8750000251993506  0.8333300141554991  0.0018699899937576
  0.0000000000000000  0.5555599783168760  0.0864100026098289
  0.3750000365432257  0.7222199606033073  0.0864100026098289
  0.6250000308712881  0.0555599860957249  0.0864100026098289
  0.4999999886561249  0.2222199683821562  0.0864100026098289
  0.2499999943280624  0.8888900002512240  0.0864100026098289
  0.6250000308712881  0.7222199606033073  0.0864100026098289
  0.4999999886561249  0.8888900002512240  0.0864100026098289
  0.6250000308712881  0.3888900080300730  0.0864100026098289
  0.4999999886561249  0.5555599783168760  0.0864100026098289
  0.7499999829841874  0.2222199683821562  0.0864100026098289
  0.8750000251993506  0.0555599860957249  0.0864100026098289
  0.3750000365432257  0.0555599860957249  0.0864100026098289
  0.2499999943280624  0.2222199683821562  0.0864100026098289
  0.1249999521128992  0.0555599860957249  0.0864100026098289
  0.0000000000000000  0.2222199683821562  0.0864100026098289
  0.1249999521128992  0.7222199606033073  0.0864100026098289
  0.1249999521128992  0.3888900080300730  0.0864100026098289
  0.0000000000000000  0.8888900002512240  0.0864100026098289
  0.8750000251993506  0.7222199606033073  0.0864100026098289
  0.7499999829841874  0.8888900002512240  0.0864100026098289
  0.8750000251993506  0.3888900080300730  0.0864100026098289
  0.7499999829841874  0.5555599783168760  0.0864100026098289
  0.2499999943280624  0.5555599783168760  0.0864100026098289
  0.3750000365432257  0.3888900080300730  0.0864100026098289
  0.6220601270771059  0.6127379746251290  0.1712512930945261
  0.7510602964439355  0.1165212112645428  0.1736323966693663
  0.4992467910519131  0.1100416820914908  0.1706632739852905
  0.6251037476144412  0.2865804755134456  0.1694501283532341
  0.1238106717866804  0.9499298479972488  0.1720698928072686
  0.7420987123791093  0.4453104442174934  0.1701140899769368
  0.8683005221662321  0.6175035483685541  0.1707020597064052
  0.8749458488434144  0.2836319337102896  0.1702973012585694
  0.4907212856635023  0.7870328527164262  0.1715005182211291
  0.2436524991348651  0.7847178092699602  0.1711795490619335
  0.4969848546253289  0.4508151184744834  0.1716296181819797
  0.3661569722846938  0.9492316984100581  0.1691176955758213
  -0.0038299960837597  0.4455776186634765  0.1715402615858053
  0.3808570984007013  0.2823936410811391  0.1705177761949237
  -0.0047840634856398  0.7870813904446494  0.1698629867995559
  0.8699123231027686  0.9511936395890539  0.1715890396155622
  0.1238498238784173  0.2849360136217497  0.1721451569656898
  0.0004120605123434  0.1194028105899128  0.1706015560233378
  0.2471034011965007  0.1159301398248541  0.1713751797021041
  0.1163806580975222  0.6151702577748477  0.1714661978908761
  0.7421039235967232  0.7888553324311590  0.1689020376708467
  0.2427328347235998  0.4501617694248379  0.1732867685933659
  0.3657936874886831  0.6207572137892781  0.1717803894083167
  0.6273427759638770  0.9498509831624801  0.1755416206347487
  0.5024679020839377  0.6861471480996577  0.2522410466701751
  0.6117589322484209  0.5230953540378374  0.2594902339636588
  0.4930430494077362  0.3480245895235644  0.2561871011074497
  0.4914372005186388  0.0114221952403017  0.2545232863605733
  0.7376744827817782  0.6908967473196687  0.2527197631942751
  0.8647121524859648  0.8527311591166447  0.2577241519460735
  0.3653517908820488  0.8554384894761951  0.2553454149839065
  0.7492680657507141  0.0182016435128194  0.2605330801641481
  0.6238145459137268  0.1803709259391704  0.2537687451182037
  0.7455324375073147  0.3530430755420528  0.2603478425170389
  0.2531331833816339  0.3501364252297171  0.2550739767914275
  0.8592644616423127  0.5226304193277519  0.2588981781442786
  0.2400136275771111  0.6901689638209028  0.2603383620271472
  0.3740011634118581  0.1838241644738086  0.2626643443694288
  -0.0009547875081844  0.3555585009154438  0.2613807561519857
  0.1090388886465746  0.8540150130845882  0.2612055973587261
  0.8687212851967364  0.1846775043924199  0.2553611078679842
  -0.0092971823813100  0.0202533495978563  0.2584306946738429
  0.2439244077469779  0.0184794257908946  0.2587486895529191
  -0.0064113340708768  0.6860306258261485  0.2586920168806190
  0.1222546790752148  0.1800489326097830  0.2598041565830391
  0.1308780724732983  0.5213636489050053  0.2605567859044093
  0.3665944199298576  0.5196939331728306  0.2610626373794018
  0.6173770256381010  0.8577347552322623  0.2605739087828108
  0.6618769888939382  0.5506884876835866  0.3412026413901709
  0.7279658184527825  0.6878903440246229  0.3878006962829481
  0.5130214821481452  0.7282913054971639  0.3846996999632070
  0.4088876455234572  0.5796758829377692  0.3575741695861494
  0.3609578492418627  0.6685284753212504  0.4393814822944657
  0.4708749887853023  0.6048381627235890  0.4703970305667227
  0.5702964120285952  0.7466616938416890  0.4472586168366812
  0.7217433232927901  0.6306526718348515  0.4451457292901573
  0.7412557400416095  0.4964261887767894  0.3907483083686417
  0.3624717287317762  0.4950630496249199  0.4022145991799098
  0.7541646229761992  0.8884365151951953  0.4786132036393453
  0.8642242063781902  0.8719353551306348  0.5074371596139000
  0.0047599825383103  1.0709830377725722  0.4265567137098908
  0.0373295919629147  1.1768901895378143  0.4205576806428046
  0.5610277856406904  0.8585279360790289  0.7857442138138240
  0.6030389182821823  0.8195558365001508  0.7330105992388027
  0.5796974852486528  0.5040695356021726  0.8831104848414579
  0.4318620558505324  0.4973778529085299  0.8926338960135355
  0.3491538283446471  0.0270960354242722  0.7943964007752300
  0.2232948290016094  0.0412119067201327  0.8143595430256289
  0.0752935531955745  0.5865046105544739  0.8677794276201983
  0.0294072024593654  0.5577649989591194  0.9183321290633475
  0.0695176676844124  0.7124153053973523  0.7753077130873325
  0.1777126486328743  0.7770075603765757  0.8068599479951944
  0.5131800328405881  0.0535257459367687  0.3701411868540583
  0.7634805002618020  0.1305145519151010  0.8984917504749099
  0.6569569105174798  0.1964969924275506  0.8710244732223016
  0.8275484703629584  0.1821075086079423  0.8208838029165841
  0.8454493561216246  0.1822235986021826  0.7626676636697739
  0.4499245067359561  0.3310088683286545  0.6509274287480742
  0.4100020886751789  0.4025607776910807  0.6991383497417746
  0.6758360250055853  0.4151384409205918  0.4988463683510093
  0.6416530909881291  0.5190289652072027  0.5003730424039726
  0.5732192620861728  0.9013142863251238  0.3504887897439838
  0.7144451540030373  0.8639441042093414  0.3563510866080575
  0.6495702251690063  0.8402945413372778  0.6317990027036359
  0.6479348742397620  0.9426928172302720  0.6376592435004822
  0.3830276812140046  0.9206908500890627  0.4865227980417556
  0.2794067020899574  0.9689403557577825  0.4576511055430167
  0.8776113623298156  0.7356088651899407  0.5013278462930388
  0.9916188558733496  0.6811504651438168  0.4837044859549770
  0.0107965449278218  0.4382455311675229  0.7324927391395490
  0.0325473469391880  0.4644781890865518  0.6774373534819563
  0.7032357488602278  0.5600269104399550  0.7544486916652126
  0.6877416258707625  0.5027518492250810  0.7069482340378646
  0.2876462317403864  0.1706166155820225  0.3705539586208264
  0.3257780210811456  0.0914513235826034  0.3423611764142290
  0.5543538424213815  0.7881284728016191  0.9176358813490604
  0.2616287610237309  0.2620979624417489  0.9153155838151709
  0.3098735231494208  0.2781306466894145  0.8617129196126253
  0.4671492963888639  -0.0038048130472821  0.9106138441273793
  0.5929672130730148  0.0420198373117678  0.8917850559588858
  0.1376918163471821  0.8376669473973145  0.6106887105293864
  0.0746983456134574  0.7839227929685945  0.5667381253308275
  0.3948262260109705  0.3514394185577146  0.3736534600867850
  0.2911792668812056  0.3573967025820313  0.3362315462822075
  0.1887901376278455  0.6858334004194661  0.4946223519979367
  0.2096149925322291  0.6436988032862158  0.5463449955011337
  0.2825097789939215  0.2309123125208165  0.7022478311303832
  0.2402168050379248  0.2336949311578608  0.7576426476882524
  0.8939853994048274  0.3592608015382771  0.7800451590266165
  0.8191023943911353  0.4515236925099176  0.7570331392708078
  0.7197411190763784  0.7374985093102789  0.6615921108341506
  0.5704387503053135  0.7123603873691721  0.6671614756894680
  0.5969816400937084  0.1210948682997802  0.5660823885507388
  0.5471389288940323  0.0676478258846381  0.5229785034626633
  0.2362256571715438  0.5715890002630580  0.6244000641454492
  0.1370999121393199  0.5203807866714704  0.5975721800074052
  0.6692197704906484  0.0943497419445633  0.6518023078078951
  0.0928164963849895  0.2472901646516904  0.6078772026849510
  0.7569280389156660  0.6545943694155274  0.8296688685665703
  0.7089479613629682  0.7291503942729614  0.7887877987277059
  0.8937104915045904  0.6495224793832485  0.7696714071654799
  -0.0145082728699209  0.5864340841948794  0.7373039867572233
  0.3241395471083175  0.4464759445843151  0.5480708500591656
  0.4499710142809658  0.4921859548946537  0.5499937737379065
  0.8135318588685568  0.0695916775325884  0.7094154911293693
  0.8779183986791139  0.0360692042899626  0.7590189627493570
  0.4906864521642700  0.6377586796522738  0.7411897510437401
  0.3924903658666419  0.5883306474123058  0.7183332933928812
  0.6434267821223710  0.0163361492884106  0.4343239693283597
  0.9486352505594129  0.9005518577685294  0.5830506670698244
  0.8048512227542877  0.9214374968767778  0.5793655589866004
  0.7353236622197145  0.2754142008714943  0.3545749806768386
  0.6705182922704414  0.3703328932070729  0.3653802005586687
  0.2580902904908650  0.4194321500503817  0.8822521420066091
  0.2885157703790358  0.4799682926791502  0.9290983488407881
  0.8881753958604708  0.6315860125151906  0.8886195194361522
  0.7887411492269206  0.6911642924869322  0.9255290243289345
  0.8414173984890839  0.4321662776085053  0.8397537086641971
  0.5471708924739711  0.2777155378752197  0.7189658608032644
  0.6549646865504249  0.2450903579953412  0.7546954976049162
  0.3347195046373500  0.4272486564868683  0.7625443707725434
  0.2159171810093304  0.4439860893311453  0.7295367086469273
  0.5274808388323038  0.1241788818465785  0.7707391105817988
  0.5430663819125003  0.0455646054379016  0.8109494224026865
  0.4063546524647383  0.7111317115890741  0.9302360655012399
  0.4863548437478803  0.6631204951316871  0.8926453506380072
  0.0528270682522993  0.0950269584933000  0.8704715821562933
  0.1476852486473716  0.1809021265163140  0.8745612746975637
  0.8703591176054037  0.5966482150521808  0.5561279597766796
  0.2263158891934639  0.1407491177772519  0.6231866231155042
  0.3041632422049552  0.2312857879715757  0.6204936159798088
  -0.0576122155690629  0.4901324420982635  0.5974348953874427
  0.0057600860701546  0.3852824689838695  0.5989538189664820
  0.4889379851768631  0.3375037554395003  0.8233988757966517
  0.3976394189461994  0.2924291795001931  0.7889845147636730
  0.8374689513020063  0.3578448587277367  0.6028196651185256
  0.7229974308644632  0.4092076182513183  0.6053691619957563
  0.4428267255571681  0.3162765484285664  0.5702012223758368
  0.4484265098424295  0.2084914080192115  0.5686592474541401
  0.1170290714179465  0.9237235035553688  0.4284014091529542
  0.1117146939829923  0.9711629207735260  0.4808935204408530
  0.6846556456551522  0.6068599514944762  0.5634404134378679
  0.5896718536397375  0.6544819490195598  0.5260980478335865
  0.3227987237842304  0.8922918014440254  0.8244235532804954
  0.3761041990626627  0.7972559959614823  0.8497397658845318
  0.0387103878769856  0.8224800735586912  0.8972051882684314
  0.1590071891212317  0.7595221642983900  0.9141157965147957
  0.3809894516526428  0.7567806336244722  0.7080882134948054
  0.3690920533191531  0.8496282518452404  0.7371938584790864
  0.8780300196884301  0.7784757769754312  0.8724909710875765
  0.2181512051511039  0.2676497188215663  0.3944969325284858
  0.2194889583937181  0.2032419679144380  0.4418553809086949
  -0.0813766048213156  0.3512148131149742  0.3539613188283469
  -0.0302752121887374  0.2527468782787953  0.3364634761751677
  0.5705390063015974  0.4428779342222524  0.6575929889924381
  0.6067633235857994  0.5257964913377572  0.6205267456053434
  0.3429373348243798  0.7905291541262450  0.5369966086602245
  0.4238072527175144  0.8538844502905342  0.5696336062982983
  0.8642018122803967  0.8766410534198090  0.4040884399222654
  0.8718061945469386  0.9227247417708475  0.3476396288977511
  0.7836423158605995  0.1416369954034959  0.5725059212733832
  0.7240273891597876  0.2265122954432031  0.5977942780685033
  0.2115280024180969  0.0449655171782674  0.9005065108814782
  0.2065994420848097  0.9389785952284478  0.9139188781941937
  0.7870478072551571  -0.0786742579507511  0.7901345458394617
  -0.0488247731320378  0.7509135009516416  0.6386398490419415
  0.1974002084601187  0.9503095995328915  0.6563584042193593
  0.3106122970030025  0.8817813904348549  0.6577545377224415
  1.0093062230622780  0.8374892688333569  0.3745079438771455
  1.1158245269662912  0.7016853516755547  0.4114748020672355
  1.0643341312340104  0.6051447123709738  0.4311454045555967
  1.0401019662659210  0.0391861910004326  0.7092639802999533
  0.1670870651824550  0.0116538196462617  0.7357490698918666
  1.0513783234818161  0.4324741676455400  0.4017699999961094
  0.9380741300169333  0.4743389538405785  0.4251711489137714
  0.3443616409415451  0.0986364227751278  0.4720753542811836
  0.2843843786810842  0.1310974718078168  0.5234870856178893
  0.3969920932772348  0.0625997253063252  0.5753517840534663
  0.2748230770373968  1.0048829214072510  0.5791599561039158
  0.6840073430974412  0.3590902340213536  0.8601505963941958
  0.5635438407712448  0.3133035143144709  0.8806337777790864
  0.8541956659110268  0.0127043308560146  0.8555329267827614
  0.8847880940136377  0.0082051464809351  0.9123791959013516
  0.9838442763858188  0.2287181727229449  0.5706033179174683
  0.8274002147912443  0.4321741381578618  0.9014748463307185
  0.8420004691250422  0.6173889506856108  0.6119548182308359
  0.9965431760481531  0.7819756357433684  0.8340362769532718
  0.9107544229465275  0.7027716872970883  0.6846398712453271
  1.1440693222798888  0.8460902267291353  0.3540007058541129
  0.4642926023058181  0.9892431520404487  0.4150082359222292
  0.5945872892627760  0.8941761393004440  0.9132164865165545
  0.6022708962335620  1.0705548259989424  0.7037334875840751
  0.7599322212415250  1.1188994114869542  0.3399627551960194
  0.8536615631524996  1.1451696006144325  0.3845189870992659
  0.7516232047791391  0.0558466900649627  0.4663880551066397
  0.9440046580348359  1.1314630808273969  0.5026687613714026
  0.9201258358347808  1.0579320060764394  0.5448058189665265
  0.8864565521458070  0.8955845392216565  0.8236288560471278
  0.6619561766021926  0.5404326098840259  0.3839437125153808
  0.6717503552600135  0.6413405407910855  0.4090808858496858
  0.5462586085824285  0.4897066711838412  0.3925927345218011
  0.5511164952857472  0.6922866876058690  0.4191845305851997
  0.4334983177587172  0.5469247860920402  0.3954584809503819
  0.4473466794393933  0.6334069681512362  0.4343687617481197
  0.5430506517421133  0.4019258758746801  0.3871711874140027
  0.8343299913335773  0.8611749478014926  0.4740313203349331
  -0.0332015704140059  1.1345205430855321  0.4243416995981256
  0.6316108399748065  0.8405728246731022  0.7678914810457382
  0.5075647578046757  0.5405531735244410  0.8819148475425646
  0.2695295188027632  0.0014386868121842  0.7908232149835132
  0.0023578273105644  0.5627474637189865  0.8833255269510288
  0.1001686851806573  0.7502311387585162  0.8054122661947150
  0.6740880188552180  0.1414326785581662  0.8936700013570615
  0.8204455940362931  0.2206808135088604  0.7919571581072311
  0.8783609927313332  0.0512795079590496  0.8848184362147806
  0.4795295119209325  0.3716383209159499  0.6793728485732421
  0.6641519756063010  0.4689741060953929  0.4770588555481508
  0.6251145527049742  0.8492525869554386  0.3441953806682048
  0.6568943715361533  0.8986298961967438  0.6102803571471660
  0.3676768934467683  0.9663052487468342  0.4620210692468436
  0.9284446713085219  0.6836206921798034  0.5108124632204686
  0.0631636350673872  0.4788672383032938  0.7108048251220873
  0.6953166868873503  0.4997724982209588  0.7436320447633649
  0.3609770554494731  0.1515697660729056  0.3548052429577358
  0.6220679554951830  0.8325256321755461  0.9269254012266511
  0.2334294973575215  0.2808634545790354  0.8832226112835221
  0.5363960714002315  -0.0123447372622527  0.8872462713691135
  0.0594503819552547  0.8128663683820184  0.5998664597441961
  0.3053392183372153  0.3530477917995312  0.3740026630646286
  0.2071842155544456  0.7070003908998088  0.5296850875795296
  0.3012436240074655  0.2574569277362898  0.7346587128169066
  0.8967079539044860  0.4282813987942598  0.7783549778537221
  0.6314025186298009  0.7588503772197194  0.6658935337602915
  0.5177953797557439  0.0968206786904012  0.5536997632267870
  0.2118782784474523  0.5555779505513422  0.5903263230232080
  1.0326768644656452  0.2780339867060391  0.5832860936899478
  0.7369246722388041  0.6670294218671526  0.7940284446365633
  -0.0408675471919225  0.6512116243286352  0.7441801167006969
  0.4033013599899732  0.4381041255320514  0.5362501462791733
  0.8926768860498230  0.0728157583020001  0.7283854340123055
  0.4505361644055497  0.6341585730378249  0.7105929051296584
  0.8859519945683909  0.9390889158068678  0.5663195545873463
  0.7421755139901973  0.3471452049576086  0.3463725850556285
  0.3078349558757632  0.4750903717850936  0.8918689681744860
  0.8183664200329175  0.6801246736662229  0.8918593390079068
  0.7879627540200007  0.4360056941455004  0.8692221596289279
  0.5739937750478323  0.2302549254474708  0.7439646746530757
  0.3045520040017844  0.4634401541446994  0.7309282120131375
  0.4927354768058032  0.0636022592880784  0.7798163477316690
  0.4522638032364710  0.7269984400778405  0.8979123626967261
  0.1388832890146585  0.1141491067465028  0.8652598580988028
  -0.1729031962844506  0.5703833067400292  0.5857444993238172
  0.2274370683183625  0.2048438940060562  0.6372214137446469
  0.0071266049831528  0.4522955267040371  0.6119337838456751
  0.3983342738838068  0.3344078980663723  0.8183255464671950
  0.7582002567721021  0.3554937427231696  0.5875798979882331
  0.4433230042141971  0.2611496658475672  0.5929920452177143
  0.1291220020982187  0.9864903652369176  0.4450138018599525
  0.5975772903572588  0.6162089341127905  0.5551367514341254
  0.3285081296735282  0.8231167204452234  0.8216751416353839
  0.1192988859720269  0.8215941659545427  0.9174603669446000
  0.4052082021235819  0.8274903011586029  0.7073303267022962
  0.9427101919021105  0.8208614299612814  0.8598906002983863
  0.1779941684805215  0.2128372999702159  0.4076507378447448
  -0.0024942885499787  0.3154349625344508  0.3497101113563893
  0.6382137358740173  0.4866662586434879  0.6468355043659650
  0.4065793544193646  0.8358694924787909  0.5346328170563499
  0.8665693769516448  0.8644857239424756  0.3673463191590023
  0.7135428320250407  0.1607898395493497  0.5941976553562166
  0.2451983705779205  0.9051332831167143  0.6346256546905286
  1.1011994720834322  0.8387532839344148  0.3857007001397132
  1.0986235636587454  0.6672482833842820  0.4409020754821049
  0.1221652159065458  0.0134028418770326  0.7047636171248971
  1.0146978533314484  0.4901028968648721  0.4122853108498743
  0.3052260209257185  0.1521981157749344  0.4900693573501340
  0.3010707471091035  0.0699164146281029  0.5768435597880902
  0.6226145510857913  0.3095391850256539  0.8536094767721266
  0.8825422822431727  0.7106647799725254  0.6496909737051132
  0.5346988254415312  1.0011658225630671  0.3919744751788819
  0.6657164697547049  1.0490568376670077  0.6810154278183904
  0.7633151380003826  1.1408849938476342  0.3753271926061721
  0.6758894881750711  1.0171169074140565  0.4707323663497555
  0.9298915545121688  0.1253435672203143  0.5389858638348134
  0.2614660015013615  0.9915356628147123  0.9167333331173336
  0.8616617785046233  0.9485316864769646  0.8043237350068096
