combine
1.000
11.0985002518  0.0000000000000000  0.0000000000000000
0.0000000000000000  14.4173002243  0.0000000000000000
0.0000000000000000  0.0000000000000000  26.7964000702
Pt  H  C  O  
96  170  6  81  
Direct
  0.4999999886561249  0.3333300219343480  0.0018699899937576
  0.1249999521128992  0.1666699702868031  0.0018699899937576
  0.2499999943280624  0.0000000000000000  0.0018699899937576
  0.3750000365432257  0.1666699702868031  0.0018699899937576
  0.4999999886561249  0.0000000000000000  0.0018699899937576
  0.6250000308712881  0.1666699702868031  0.0018699899937576
  0.7499999829841874  0.0000000000000000  0.0018699899937576
  0.8750000251993506  0.1666699702868031  0.0018699899937576
  0.0000000000000000  0.3333300219343480  0.0018699899937576
  0.1249999521128992  0.4999999922211510  0.0018699899937576
  0.2499999943280624  0.3333300219343480  0.0018699899937576
  0.3750000365432257  0.4999999922211510  0.0018699899937576
  0.0000000000000000  0.0000000000000000  0.0018699899937576
  0.6250000308712881  0.4999999922211510  0.0018699899937576
  0.7499999829841874  0.3333300219343480  0.0018699899937576
  0.8750000251993506  0.4999999922211510  0.0018699899937576
  0.0000000000000000  0.6666699625079541  0.0018699899937576
  0.1249999521128992  0.8333300141554991  0.0018699899937576
  0.2499999943280624  0.6666699625079541  0.0018699899937576
  0.3750000365432257  0.8333300141554991  0.0018699899937576
  0.4999999886561249  0.6666699625079541  0.0018699899937576
  0.6250000308712881  0.8333300141554991  0.0018699899937576
  0.7499999829841874  0.6666699625079541  0.0018699899937576
  0.8750000251993506  0.8333300141554991  0.0018699899937576
  0.0000000000000000  0.5555599783168760  0.0864100026098289
  0.3750000365432257  0.7222199606033073  0.0864100026098289
  0.6250000308712881  0.0555599860957249  0.0864100026098289
  0.4999999886561249  0.2222199683821562  0.0864100026098289
  0.2499999943280624  0.8888900002512240  0.0864100026098289
  0.6250000308712881  0.7222199606033073  0.0864100026098289
  0.4999999886561249  0.8888900002512240  0.0864100026098289
  0.6250000308712881  0.3888900080300730  0.0864100026098289
  0.4999999886561249  0.5555599783168760  0.0864100026098289
  0.7499999829841874  0.2222199683821562  0.0864100026098289
  0.8750000251993506  0.0555599860957249  0.0864100026098289
  0.3750000365432257  0.0555599860957249  0.0864100026098289
  0.2499999943280624  0.2222199683821562  0.0864100026098289
  0.1249999521128992  0.0555599860957249  0.0864100026098289
  0.0000000000000000  0.2222199683821562  0.0864100026098289
  0.1249999521128992  0.7222199606033073  0.0864100026098289
  0.1249999521128992  0.3888900080300730  0.0864100026098289
  0.0000000000000000  0.8888900002512240  0.0864100026098289
  0.8750000251993506  0.7222199606033073  0.0864100026098289
  0.7499999829841874  0.8888900002512240  0.0864100026098289
  0.8750000251993506  0.3888900080300730  0.0864100026098289
  0.7499999829841874  0.5555599783168760  0.0864100026098289
  0.2499999943280624  0.5555599783168760  0.0864100026098289
  0.3750000365432257  0.3888900080300730  0.0864100026098289
  0.6247982122787592  0.6146319402757836  0.1701995608608616
  0.7482865407020273  0.1110898805450771  0.1694821501098041
  0.5039316587565894  0.1163859949293294  0.1708515405541872
  0.6326927564524902  0.2819870821201125  0.1710658843199525
  0.1285383821177668  0.9485938223752303  0.1707810172228797
  0.7513477321899933  0.4493591848895934  0.1705241475619563
  0.8817952551032981  0.6214542981284845  0.1685579044523606
  0.8794309156065498  0.2810665742654150  0.1713822049480142
  0.4949160448240879  0.7774842466835180  0.1717538287584482
  0.2461437994792982  0.7809506244465174  0.1708177533440534
  0.5102393707817927  0.4470556292874132  0.1698293766729105
  0.3713464846235937  0.9466653809217367  0.1711680819245869
  0.0065750221060873  0.4553760016063453  0.1722939221240527
  0.3805202043415788  0.2844116181536400  0.1727259286200624
  0.0002313402389286  0.7840187020485532  0.1709145959868413
  0.8708605630776510  0.9475380793329686  0.1680319047485543
  0.1238690418714038  0.2854532255396531  0.1705836212522962
  0.0043475928733861  0.1213059630507149  0.1734755817580725
  0.2503556466243589  0.1161000267566579  0.1735691424674750
  0.1256962309546055  0.6160530362980103  0.1736067107750597
  0.7517908067305559  0.7782260643632228  0.1698167855263715
  0.2472340401537567  0.4431936740576710  0.1717401106284368
  0.3672999233963039  0.6119352198915837  0.1720491226105802
  0.6255907461437357  0.9409068700141211  0.1706156753975452
  0.5045101020826559  0.6869658463799435  0.2586690027743068
  0.6252635386906916  0.5234018340744084  0.2584566362927984
  0.5017238256400360  0.3496567586491222  0.2556967602644418
  0.4994822084363094  0.0167711026848468  0.2553877417926206
  0.7496651784686497  0.6866972759791224  0.2586030395891264
  0.8764983989816373  0.8501117735581509  0.2545489123363834
  0.3736606907791357  0.8552646810959148  0.2578152296167160
  0.7609399539392998  0.0197140660094563  0.2559374880929225
  0.6346812547449889  0.1818877482886933  0.2578321752474280
  0.7523165073178090  0.3592070338502953  0.2545308459954298
  0.2561396667481220  0.3435227877929875  0.2591288889481106
  0.8689421051944295  0.5236561275720094  0.2568593412424234
  0.2512041583229079  0.6914596317622304  0.2599570297932191
  0.3827320864826833  0.1841050148783229  0.2642737000809059
  -0.0010749769995333  0.3497955792375030  0.2563197570683507
  0.1213319502949601  0.8537977397496873  0.2550673332124567
  0.8824670266607922  0.1780485626548458  0.2577032469476956
  0.0097489461229189  0.0148624869057552  0.2661804010991826
  0.2545232864811494  0.0187279598051867  0.2602274828720287
  0.0040932675919552  0.6875575480069668  0.2570987281370508
  0.1272035242303151  0.1834713803380223  0.2596402992705457
  0.1359298319748496  0.5215803469102764  0.2612462822155405
  0.3796177477598099  0.5151024839437698  0.2595222585526988
  0.6260204997853798  0.8545425958068498  0.2593619976897191
  0.8658288988047288  0.5086055258765358  0.3537060063131555
  0.9853585481539592  0.6254227469441350  0.3815945725512405
  0.7793015362951636  0.7089529066664260  0.3439015176985756
  0.5809729953066630  0.6430592399313195  0.3594429367029566
  0.6402436977597545  0.7713057880945885  0.4109666135357788
  0.7179923351722781  0.7044112936680618  0.4539668841833800
  0.8684206277453426  0.7715840418270896  0.3906653317190105
  0.9052243818231743  0.6345425960250599  0.4419245996617789
  0.8493221133973682  0.4756339390673224  0.4154898807837101
  0.5339702413250703  0.6094164143569114  0.4178101238849147
  0.7913912213297014  1.1097341856510319  0.4783108453457396
  0.7896927278601046  1.0030810789682476  0.4807474516484128
  0.0749016234211624  1.1362731543100255  0.3791167069675780
  0.0343103072722138  1.2069591997446854  0.4245848370226651
  0.6036379912604364  0.8665798224997847  0.7574977763402417
  0.6869681017814507  0.9360371691264566  0.7821119320802697
  0.4093708001189739  0.5726621604427928  0.9070667200864264
  0.3688895811157907  0.5125796372225304  0.8620667963152854
  0.4359072015622441  0.0670904534102510  0.7982808812176517
  0.3147949652957271  0.1016727519504208  0.8325916172863544
  0.1173504376493364  0.6218412675619570  0.8638884464724750
  0.0902551871580613  0.6413615129006550  0.9230597919534417
  0.0126049255057963  0.7985228513307849  0.7809209018554489
  0.0867160661048695  0.8839087135066396  0.7982281429395136
  0.5124705275091157  0.1012292515931748  0.3634388378545847
  0.7399326535644417  0.1169437128359350  0.8780130966123614
  0.6531591592138147  0.1964446183361290  0.8827344129820440
  0.8540529167229333  0.3042361860584037  0.7694931440223903
  0.8752045099178721  0.2215042140564880  0.8024302867015493
  0.6231205629678103  0.3928344102076839  0.6295162125064547
  0.6202610857339513  0.4414030694646912  0.6800005103433283
  1.1528507438854063  0.3060266520886867  0.4458264950367579
  1.1098822146624912  0.2719825976704586  0.4966497512216263
  0.6026735785058154  0.9387635257111484  0.3400965304341338
  0.7092295617530293  0.8804700292295071  0.3571813341577925
  0.7764866992909537  0.8960494067971200  0.6328122804285866
  0.8103773091541192  1.0048522786868299  0.6265280718013512
  0.5350359155001086  0.9739168171121124  0.4907739772300633
  0.4072132272616758  0.9553394483583862  0.4711167539493217
  1.0388126945197065  0.7413044723370816  0.5024579670600323
  0.9940888781806928  0.8011073804187757  0.5456604582815093
  0.0402775860393840  0.4789758576478061  0.7916090474141693
  0.1438988242615016  0.4763292930478896  0.8238997962062901
  0.7541375283243835  0.6328608886510860  0.7337162797985221
  0.7660021009254107  0.5774987635248644  0.6823480718640998
  0.3623329835621530  0.2260471417323373  0.3687379030957367
  0.3296770484918970  0.1151812212317738  0.3584933822279771
  0.6690812952854286  0.7801450268853024  0.8898459968142292
  0.5028524029537113  0.3269826593854459  0.8662334914723773
  0.4164223576559760  0.2973900406244868  0.8278985955643862
  0.4102295644550341  -0.0175666017326276  0.9048803424220194
  0.5318956413721383  0.0436269275880005  0.9032451087643187
  0.2742154071408353  0.8819077403319688  0.6373735090854137
  0.2643365896868988  0.8170326568316936  0.5876227707919303
  0.4659840496432144  0.4895405048931536  0.3613925931330417
  0.3427729958183321  0.5539690152139964  0.3618701579128806
  0.2970661495336075  0.7788674139887524  0.5041013698822261
  0.3477352918718974  0.7162891075469300  0.5458930348247640
  0.3316156463485318  0.2375358949678996  0.6432387729487781
  0.2751179088097770  0.1956820119445752  0.6915770960334705
  0.9838137451255303  0.4091675875804561  0.7169470533269513
  0.8787505760355546  0.4694308451656455  0.7389342204000096
  0.8875880642974568  0.8061830829193493  0.6815770780050040
  0.7827751641750879  0.8556479922161678  0.7155858540164304
  0.8522731123302816  0.3232915698629911  0.5718837807449417
  0.7881595266154373  0.3311587027613425  0.5176841345165236
  0.3529821004026766  0.6426386107909359  0.6203741899714040
  0.2678353640004554  0.5700616549725102  0.5864517737394234
  0.9018664993296405  0.1468290065661569  0.6486942866714058
  0.2274995538149851  0.1993812160098488  0.5595741936348873
  0.7091186859344879  0.6696889377337484  0.8193342513241606
  0.7403672423098191  0.7627212067531115  0.7872194953515096
  0.9255127031631212  0.6798643909959852  0.7783878579382743
  0.0520531812761192  0.6275198510919032  0.7783268606701443
  0.4659665812830215  0.5586723456326630  0.5532458413690698
  0.6060127037983511  0.5554123916420550  0.5507253313370110
  0.9195285080743092  0.0513526545734361  0.7181046614466515
  1.0029886646166106  -0.0144537683170926  0.7486546146140692
  0.4554720677579973  0.6166833582902431  0.6958312962544462
  0.5145089330852503  0.6843286453153561  0.6572342226553625
  0.6355670098990157  0.2333637987873249  0.4957904743434009
  1.0821748070017014  0.8901008219465770  0.5920467445230821
  0.9486774573611764  0.9303533870295919  0.5839268820031173
  0.7360952458126068  0.2709587161551719  0.3535772423638577
  0.6909387595730613  0.3757671307883884  0.3549727022167499
  0.3172125781164907  0.3924476683341532  0.8759490060869511
  0.2033032299777669  0.4009592290765154  0.9095901406363083
  0.6901535141072528  0.5943740954604462  0.9085701697660272
  0.5814792030259527  0.5818568723332040  0.8722299617810398
  1.0106349683310460  0.4669338955814700  0.8831880141772851
  0.7000289868390054  0.2676201288988094  0.6762179217517839
  0.7251595668518106  0.2228518945374182  0.7277426958924506
  0.6090282783841672  0.5366104280717111  0.7169273931898201
  0.4968057527597703  0.4814728938986932  0.7447943290522397
  0.5875922400184055  0.1180348099453290  0.7505888081088752
  0.6219738248940839  0.1101230722534313  0.8096520706274881
  0.3690091123380191  0.7886964095631911  0.9158913157963171
  0.3730102798464668  0.7215127842498029  0.8692940958664431
  0.1740265752471152  0.2023534870129714  0.8721136109954182
  0.3125705569847037  0.1896487702802731  0.8922022095866387
  0.9800060447208611  0.6430436920550520  0.5679684825584262
  0.4253818214793763  0.1534184516094027  0.5800097053105387
  0.4598429120612293  0.2578312223348655  0.5740563454195804
  0.0901148872918927  0.5193080858495832  0.5947479065825521
  0.1630237100104185  0.4308987797680151  0.5686693523450692
  0.5076872290998202  0.2604952714496411  0.7494129603674826
  0.3848969793740542  0.2642425401448536  0.7353664403269572
  1.1899047749769767  0.3155725769053200  0.6789787816548375
  1.1363281670651499  0.4086366284493493  0.6528725466879263
  0.5487639608614888  0.4219024438741846  0.5578070116859708
  0.6539098205113760  0.3491073629802542  0.5582096774646476
  0.1747591270347931  1.0081641873422049  0.3893902911012226
  0.1928795802795802  1.0545848019224564  0.4354660314978984
  0.6866940010713565  0.6800033787307778  0.6132688760262022
  0.6802889207193088  0.7661321131943267  0.6435645186563035
  0.2944977962288106  0.9463391160644599  0.8148889068268423
  0.2829804181506988  0.8542385838884039  0.8444909215721790
  0.0150399726911686  0.8637183589346114  0.9056710696855507
  0.1103963079427139  0.7804841673432197  0.8993210837227261
  0.4401943775428261  0.7600093575170039  0.7136288872573648
  0.4056890256203544  0.8115614639472554  0.7640993902225756
  0.8114548919381590  0.8752065838743152  0.8729051538908980
  0.3492070569238782  0.3721915259179903  0.3805021418955065
  0.3701170342843205  0.3101706782912693  0.4280497681871783
  -0.0828713057379831  0.3637408615006225  0.3477271389809659
  0.0125646974398531  0.2772838762462616  0.3505041875809663
  0.7394324617120246  0.5201595070178343  0.6153915994013938
  0.8280733443520414  0.5894265880360133  0.5838920506266058
  0.5738824787310349  0.8569312245906187  0.5573921143389065
  0.6721070819266961  0.9270460029245130  0.5667053653519608
  0.8482564075694045  0.9731169762666978  0.4009779008430741
  0.8601433370650003  0.9780676888265777  0.3441088014077847
  1.0234208366358186  0.2462489772680290  0.5877801035974175
  1.0177273790454786  0.2824956435279995  0.6424493261520225
  0.2423298328586158  0.0477580699914592  0.9027535742870945
  0.1913307392551173  0.9392865357811817  0.9086100033928279
  0.8541174008950072  0.1034604755116295  0.9214284027972311
  0.1198155193251748  0.7770445392208603  0.6491484356417198
  0.3092098617237425  1.0017533385590038  0.6815816676550942
  0.4233834139290945  0.9291217307469496  0.6919329277263480
  1.0284082783481365  0.9188373564540365  0.3805362241191487
  1.1507884660748267  0.8097707459696630  0.4357264177841801
  1.1723019443631453  0.7068346125180857  0.4361831295166494
  1.1234364036508280  0.0817009597965274  0.7377968513795383
  0.2588117423824123  0.0821709574448097  0.7616904248939906
  1.2645145771045843  0.7025324726767125  0.3512046913333668
  1.1960430342601580  0.6142497737456928  0.3506999435961869
  0.4003112461234967  0.1485458104763842  0.4715904908903564
  0.3870449129199523  0.2214078607740851  0.5133169042171767
  0.4928436558365515  0.0112963971940806  0.5680948800667156
  0.4341977207973162  1.0169630324398597  0.6192171644150317
  0.7401516597224680  0.3514313148560380  0.8688754255312260
  0.6677254372272591  0.3475526113102973  0.9208329088070609
  0.9948987894656471  0.2215011999901008  0.8811883677337469
  1.0369687901690550  0.3180778686477450  0.8669696462748253
  1.1272870418298979  0.1421278665159718  0.5253548056089659
  0.9437806474348814  0.4171372056235303  0.9232927091730551
  1.0160744327749207  0.6416394435629607  0.6225836690710179
  0.9209664870028056  0.8909699273550141  0.8331811267935501
  1.0533275635601316  0.7184466489531616  0.6921923462259146
  1.1367516218467306  0.8784517802128876  0.3490855074336178
  0.5386637152736384  1.0221731010540513  0.4050305227331603
  0.6019618267897474  0.8693015332770814  0.8911077189676313
  0.7817055045156150  1.1237135662607456  0.6738366162468342
  0.6826082250952155  1.1215379640944585  0.3803281479005002
  0.8228623743752086  1.1603365710387177  0.3671923267984916
  0.7256753667860469  0.2203929343820178  0.4491678367231575
  1.0062440903210108  1.0460463592123215  0.4853328568027658
  1.0840177040631025  0.9811293211164847  0.5174895451654787
  0.8856798121895592  1.0207138412500181  0.8835490933959358
  0.8252265702129071  0.5343085298672149  0.3897576016606342
  0.8924510558346463  0.6253680698625916  0.4003006734374354
  0.6867995207427923  0.5384974954197396  0.3916711201916931
  0.8108859940189130  0.7075899056194700  0.3826160201833214
  0.6163316483946201  0.6260160974374250  0.3969491282199911
  0.6956411642147636  0.7094046402641646  0.4134893893871209
  0.6242199827293246  0.4650821676029541  0.3840145868490609
  0.8420534042321892  1.0525992004606965  0.4756700237049740
  0.0077104387762771  1.1791983043777836  0.3893011760039056
  0.6901008867083476  0.8777674288539994  0.7618350726373384
  0.4215687481956110  0.5641629898426364  0.8710924623736512
  0.3490474738577146  0.0506420745313604  0.8096790678695843
  0.1306590199936981  0.6698384824034478  0.8907039678118173
  0.0054510533340023  0.8681093677237117  0.7873909928320652
  0.6520846739293669  0.1286710359803213  0.8789047611918349
  0.8154746354519516  0.2516982723772189  0.7821194456231142
  1.0520905085807641  0.2508085215015050  0.8608298569050225
  0.6748341240416964  0.4045248440807279  0.6591366712479514
  1.0805177693134769  0.2971202553984398  0.4658786187919019
  0.6210855320728623  0.8757458711665986  0.3479756779370403
  0.7874054684264813  0.9450594294370770  0.6078639457512184
  0.4737209689072451  1.0008809586540059  0.4678728417457317
  0.9817894551232522  0.7391309758216117  0.5290477285852148
  0.0982234772687596  0.5225086844070180  0.8066944294147740
  0.7496109823713073  0.5724351954320702  0.7174783906469906
  0.3911183885494787  0.1673077022863423  0.3494582826412513
  0.6850770226514938  0.8455024900677514  0.8941829111346434
  0.4167358022314659  0.3158079832884291  0.8627026586570685
  0.4967135412017417  -0.0190146476063489  0.9104368108435213
  0.2152943080496367  0.8483801372176715  0.6154538530696338
  0.3851441770708380  0.4942953959777172  0.3484359283276783
  0.3348485678141308  0.7816177132391743  0.5363660133393704
  0.3157075807636014  0.2513909487569108  0.6794340524848013
  0.9388935646787043  0.4193644841639244  0.7478777288553308
  0.8031790258827338  0.8268126797767902  0.6841382533837939
  0.7986319214672687  0.3610014718863705  0.5479324112431202
  0.3418299245327949  0.6091663970066501  0.5882021069960223
  1.1439666998377425  0.1957512842968508  0.5470648811032842
  0.7616474508552661  0.6939422447856918  0.7915320564528986
  0.0034280979354692  0.6749380728160883  0.7589406009882809
  0.5324113578987087  0.5301086341892471  0.5365245826840910
  0.9667882049702869  0.0458187554204222  0.7494034118274051
  0.4383741780076030  0.6696239438246655  0.6761562807516617
  1.0222386042078044  0.9067405287549055  0.5666169692131588
  0.7550988820981304  0.3366091680688176  0.3429167129027499
  0.2350214494230390  0.4234236176139834  0.8767738834563775
  0.6605609572438393  0.6105326031959893  0.8747854981038520
  0.9497892619041368  0.4157929250926073  0.8852337543497107
  0.6767026152188387  0.2119128571624330  0.6975972383614467
  0.5181078230157634  0.5200908335640949  0.7151340054745262
  0.5916988788584243  0.0750336350058579  0.7787123097257242
  0.3877412704930169  0.7860206043084057  0.8799761705462552
  0.2455832057451141  0.1533378169564570  0.8813191742372629
  -0.0142460244639231  0.5960924489187617  0.5958570796364747
  0.3900872679890098  0.2189386540054004  0.5750836527753402
  0.1600907033283021  0.4743890395354566  0.5962419088102812
  0.4360966011524868  0.2813121371755937  0.7639934186781679
  1.1215947598848888  0.3529391542199821  0.6763751489759245
  0.5657471051623985  0.3536402530347909  0.5679105153764192
  0.2203680838862293  1.0619336259568912  0.4023105480795106
  0.6284052435164715  0.7293912984884502  0.6232783757686053
  0.2463206230640597  0.8855089473674227  0.8150165213978683
  0.1048383846557368  0.8440709175278931  0.9128609501208058
  0.4524311281774872  0.8212805756339098  0.7335409542701790
  0.8915578522778512  0.9009535335337492  0.8691247220032334
  0.3192932504033842  0.3168922866778842  0.3972509851813296
  -0.0028362690530997  0.3436553891864702  0.3376345238837327
  0.7444345866694932  0.5788104048658783  0.5969257335088226
  0.6001765072915759  0.9149583978952253  0.5435248068861698
  0.8629626741456952  0.9306242168548194  0.3730152095697307
  0.9642451873859585  0.2556637642522953  0.6156568651938651
  0.3753741241411718  0.9651721892387534  0.6684141412905215
  1.1139826741540895  0.9059988453929972  0.3785437859162509
  1.1650515934892109  0.7585691053215893  0.4585967591357984
  0.2103753393636518  0.0932607189960409  0.7300001978159001
  1.2510024428253894  0.6493290619571966  0.3739014778833021
  0.4051912227934270  0.2150839830728820  0.4772598267639071
  0.4365315168519497  0.0457193019736817  0.5860867341119221
  0.6668831576049755  0.3283538449050954  0.8852041444917478
  1.0475315782701760  0.7338784779598855  0.6575811779730785
  0.5743103255024247  1.0541033294697775  0.3760905993379126
  0.8557339012412671  1.0908997325304455  0.6641304125434030
  0.7448413135152459  1.1744807455739958  0.3813959553606456
  0.7179035126847677  1.2129513486321997  0.4853406970723337
  1.0912811239100251  0.0352836504120659  0.4936525726084694
  0.2627249233631450  0.9829176961519536  0.9169427120146968
  0.8737337977649078  1.0923792735171862  0.8853690722502683
