combine
1.000
11.0985002518  0.0000000000000000  0.0000000000000000
0.0000000000000000  14.4173002243  0.0000000000000000
0.0000000000000000  0.0000000000000000  26.7964000702
Pt  H  C  O  
96  170  6  81  
Direct
  0.4999999886561249  0.3333300219343480  0.0018699899937576
  0.1249999521128992  0.1666699702868031  0.0018699899937576
  0.2499999943280624  0.0000000000000000  0.0018699899937576
  0.3750000365432257  0.1666699702868031  0.0018699899937576
  0.4999999886561249  0.0000000000000000  0.0018699899937576
  0.6250000308712881  0.1666699702868031  0.0018699899937576
  0.7499999829841874  0.0000000000000000  0.0018699899937576
  0.8750000251993506  0.1666699702868031  0.0018699899937576
  0.0000000000000000  0.3333300219343480  0.0018699899937576
  0.1249999521128992  0.4999999922211510  0.0018699899937576
  0.2499999943280624  0.3333300219343480  0.0018699899937576
  0.3750000365432257  0.4999999922211510  0.0018699899937576
  0.0000000000000000  0.0000000000000000  0.0018699899937576
  0.6250000308712881  0.4999999922211510  0.0018699899937576
  0.7499999829841874  0.3333300219343480  0.0018699899937576
  0.8750000251993506  0.4999999922211510  0.0018699899937576
  0.0000000000000000  0.6666699625079541  0.0018699899937576
  0.1249999521128992  0.8333300141554991  0.0018699899937576
  0.2499999943280624  0.6666699625079541  0.0018699899937576
  0.3750000365432257  0.8333300141554991  0.0018699899937576
  0.4999999886561249  0.6666699625079541  0.0018699899937576
  0.6250000308712881  0.8333300141554991  0.0018699899937576
  0.7499999829841874  0.6666699625079541  0.0018699899937576
  0.8750000251993506  0.8333300141554991  0.0018699899937576
  0.0000000000000000  0.5555599783168760  0.0864100026098289
  0.3750000365432257  0.7222199606033073  0.0864100026098289
  0.6250000308712881  0.0555599860957249  0.0864100026098289
  0.4999999886561249  0.2222199683821562  0.0864100026098289
  0.2499999943280624  0.8888900002512240  0.0864100026098289
  0.6250000308712881  0.7222199606033073  0.0864100026098289
  0.4999999886561249  0.8888900002512240  0.0864100026098289
  0.6250000308712881  0.3888900080300730  0.0864100026098289
  0.4999999886561249  0.5555599783168760  0.0864100026098289
  0.7499999829841874  0.2222199683821562  0.0864100026098289
  0.8750000251993506  0.0555599860957249  0.0864100026098289
  0.3750000365432257  0.0555599860957249  0.0864100026098289
  0.2499999943280624  0.2222199683821562  0.0864100026098289
  0.1249999521128992  0.0555599860957249  0.0864100026098289
  0.0000000000000000  0.2222199683821562  0.0864100026098289
  0.1249999521128992  0.7222199606033073  0.0864100026098289
  0.1249999521128992  0.3888900080300730  0.0864100026098289
  0.0000000000000000  0.8888900002512240  0.0864100026098289
  0.8750000251993506  0.7222199606033073  0.0864100026098289
  0.7499999829841874  0.8888900002512240  0.0864100026098289
  0.8750000251993506  0.3888900080300730  0.0864100026098289
  0.7499999829841874  0.5555599783168760  0.0864100026098289
  0.2499999943280624  0.5555599783168760  0.0864100026098289
  0.3750000365432257  0.3888900080300730  0.0864100026098289
  0.6271288450050868  0.6168329348521827  0.1720250871394605
  0.7427522197481634  0.1220942695174724  0.1687618646479720
  0.4963673764576019  0.1133400755673962  0.1734057965893520
  0.6198099298041950  0.2823912798138095  0.1691079851371311
  0.1188794601582333  0.9465714159921782  0.1723817771565882
  0.7458808651517951  0.4473899941078027  0.1714168813447528
  0.8644428453244394  0.6122689533593720  0.1698220207183985
  0.8710785253198564  0.2852860137272823  0.1728964472153972
  0.5034895728090575  0.7779681243715363  0.1722211026895433
  0.2416537235889167  0.7840991938869657  0.1724428177215788
  0.4922315848858933  0.4543990910280208  0.1728338532439829
  0.3681104608649624  0.9446825289137153  0.1708921659179356
  -0.0021678740779501  0.4423741652234104  0.1706826552230179
  0.3749812583574104  0.2790464939905441  0.1682165341945634
  -0.0052368155589827  0.7802772051482471  0.1731583370693184
  0.8720055284794348  0.9495692027918978  0.1730923569527592
  0.1260982148261900  0.2832689737095552  0.1699761258030062
  -0.0069181723258102  0.1185862477094258  0.1709366241808694
  0.2434168951486801  0.1106870407408389  0.1762004087090330
  0.1272799800018832  0.6178457402230099  0.1710571784341100
  0.7451617027858074  0.7804827804191987  0.1728174936919964
  0.2524821263796910  0.4498732446986212  0.1676681410797606
  0.3778343333658886  0.6196990299155534  0.1728311585499266
  0.6152069966293533  0.9479403579156276  0.1739409633006428
  0.5073974188707779  0.6892346357851103  0.2595119511009785
  0.6251039499480854  0.5181981255483454  0.2584563110177623
  0.4949200103238403  0.3531489465009878  0.2599896877434552
  0.4912103880626412  0.0166155028523470  0.2588743890458053
  0.7557158148768535  0.6882489029725241  0.2578842087704516
  0.8757642225780571  0.8528386144082664  0.2597503727726681
  0.3785473420716113  0.8467356647830864  0.2592643364556300
  0.7500910799952304  0.0162451725535439  0.2564863579060865
  0.6279507662370587  0.1773979376727711  0.2567565354217615
  0.7449567305509659  0.3454772920803094  0.2574204389481081
  0.2471877412495496  0.3521708790694563  0.2556362690717534
  0.8708040789774772  0.5160179996016704  0.2564178074181409
  0.2371138226151948  0.6864115814776610  0.2563993221962938
  0.3728989865390850  0.1875316625399103  0.2596705818270784
  0.0093683887319043  0.3583948884612255  0.2607595393446389
  0.1175811764916934  0.8514145335831064  0.2624053887865214
  0.8743284764647555  0.1818906020268662  0.2587715988951588
  -0.0005769469076654  0.0240417979654599  0.2568645589470268
  0.2439931927614105  0.0146820984308300  0.2612592635562836
  -0.0000754656918500  0.6899981913696328  0.2576114859688493
  0.1251401612370777  0.1891385673583972  0.2545331826824413
  0.1177655816323491  0.5239175258533358  0.2563039825016592
  0.3655892580929517  0.5275619787732688  0.2585020294238464
  0.6320646136366292  0.8527785870531766  0.2614409328061548
  0.8065937068162097  0.5546186170918996  0.3557911360452696
  0.9204743323083806  0.6562770982706225  0.4044280824517155
  0.7698793683781029  0.7432819734681150  0.3645009275578822
  0.5623598893902580  0.6555750115870881  0.3545106763301544
  0.5738772963641661  0.7858050125712813  0.3981442350670342
  0.6008668769565004  0.7255214339138079  0.4560548025288827
  0.7967160142800295  0.7875288635498516  0.4250843185337986
  0.8412691042544883  0.6356891807907803  0.4595155020690097
  0.8099154832241546  0.4881326551789756  0.4130310375164283
  0.4679671463590460  0.6257821886301218  0.4059845629935321
  0.7421007340126173  1.0766805667011541  0.4921596190439908
  0.7995753626316099  0.9756483437163738  0.4997880681962830
  0.0298184195784765  1.1250888536510006  0.3683400658984985
  0.0340210031295681  1.1897549479540528  0.4150274628519157
  0.5589016613568105  0.8057693004283705  0.7368045935863144
  0.6445426758754925  0.8730514647107680  0.7696178885213247
  0.6084333883224284  0.5659228068961257  0.8684357384139590
  0.4760667444723515  0.5241881101749015  0.8609829874632038
  0.4669736541348861  0.0403240222964995  0.7811578219821589
  0.3568757404729187  0.0908939918023817  0.8072419028799248
  0.0502196719696073  0.6338548863050883  0.9114876311263292
  0.1327555381152548  0.6170129236198180  0.8631560936881985
  0.0596939521799399  0.7792358675076051  0.7716638595307279
  0.1610251420690966  0.8397966729646749  0.7908852475884766
  0.4962240964500403  0.0766416677539674  0.3620575421244481
  0.7287554275982684  0.0770584281880653  0.8833457282130857
  0.6507453305169461  0.1667900706990204  0.8726670328491429
  1.0332008903941987  0.1887051001070552  0.7791812287733232
  1.0485883462418752  0.0814982547023327  0.7655194490551169
  0.7356159072912478  0.3177146979487556  0.6604235064164690
  0.6821539767926862  0.2969623006659607  0.7111077034482334
  1.1873964783992039  0.2617449418608623  0.4522221578926275
  1.1297701770170625  0.2010574375786602  0.4945880398852054
  0.5960168550004916  0.9496966914042874  0.3589095716329264
  0.7224998658714721  0.9133448334734489  0.3589675176740338
  0.7711127729273147  0.8616393208322154  0.6199191048940037
  0.8351748910576170  0.9661733198301572  0.6151839743926082
  0.3760212306453893  0.9755841972891224  0.4817027527647171
  0.3086897355923706  1.0220911273223807  0.4383543133677482
  1.0149351868936629  0.6612433683549009  0.4849774025934299
  0.9773125008976629  0.7290223241716751  0.5311190660691526
  0.1405407605813251  0.4662882623938978  0.7973725196826607
  0.2430872862900952  0.4890969927237100  0.8367299489655907
  0.8035311877254445  0.5829034445183743  0.7542266951214822
  0.8165090893276579  0.4999977849493661  0.7091319350479519
  0.3530242078216430  0.2021081457392954  0.3702439112831902
  0.2766058764202947  0.1176818454983917  0.3484814703294696
  0.5854137205291547  0.8031248509470633  0.8881993906251736
  0.5307870190339080  0.2998980999100286  0.8670720340467952
  0.4683111980969717  0.2807605921445346  0.8117805551758074
  0.4086609013469554  0.0008620303390126  0.9118078673213972
  0.5467908641183997  0.0427597063256642  0.9062835049177836
  0.2294960218059108  0.8704552977295942  0.6326504592888573
  0.2139290280517791  0.7822500742608747  0.5938328263876094
  0.4388376253368190  0.4577432875731365  0.3712637460157814
  0.3371051689072324  0.4261162455884338  0.3388300516977703
  0.2471070664664991  0.7147630748183531  0.5170165408788284
  0.3050295512721141  0.6535871671603143  0.5602506512207014
  0.3624908797427397  0.2634768007950278  0.6547503863331091
  0.2849213682440689  0.2002362114811385  0.6892148551938737
  1.0231017446846853  0.3470479210640794  0.7345994319994894
  0.9532282952540537  0.4245278369652020  0.7613971410879791
  0.8279218332143337  0.7601434216115244  0.6680208921722669
  0.7202476479741985  0.7966802341287637  0.6991090850943613
  0.9160679535012919  0.2565628640905682  0.5654290417707931
  0.8053482072724532  0.2362003419031485  0.5258867121174020
  0.3515235014539246  0.5378143336039511  0.6124594099545219
  0.2867753977825792  0.4938680634810536  0.5650911582164246
  0.9479348418894450  0.0926912352111252  0.6233574857869081
  0.2772144303101686  0.1088307828989655  0.5335811324671450
  0.7748759814467024  0.6725977565311344  0.8175975823694469
  0.7415582404807527  0.7370718451703707  0.7732392590877357
  0.9803182811511336  0.6542603302316945  0.7793139563333941
  0.1135153008619946  0.6098293338777219  0.7730795479329243
  0.4922492311169657  0.5134548636244008  0.5443381105554277
  0.6119718181831325  0.5666665412522938  0.5561305632532592
  0.9977969724967086  0.0119854560501385  0.6856958896330906
  1.0519802969871028  -0.0730199841871653  0.7288894078544865
  0.4635507678765524  0.5254665210225118  0.6880448875221764
  0.5118952948871257  0.6017905163115415  0.6509544038006225
  0.6150987598340435  0.1945318481315161  0.4949950801992560
  1.0533812544720997  0.8448714037160455  0.5760887162439198
  0.9132364296568966  0.8701509360993490  0.5716253111191020
  0.7161589477020477  0.2834454279874311  0.3509735354361652
  0.6821645498158279  0.3954172203885553  0.3548431738364112
  0.3852401240975390  0.4004788777907505  0.8703743206923215
  0.3478513225400763  0.4583261970616852  0.9203714008370500
  0.7903889740577605  0.5111122333833329  0.8788201392876217
  0.7697748826481672  0.5742121794999208  0.9214948757747705
  0.9257339496598811  0.3746065262341601  0.8273485396329406
  0.7702785103251674  0.1844298556756385  0.7161979033348849
  0.8509603525997371  0.1216200767911202  0.7500065285504598
  0.6656361453793592  0.4827234594705755  0.7380570751551847
  0.5595930585479540  0.5147921242418572  0.7687828184170801
  0.6602641484656023  0.0495577841817947  0.7524838676119042
  0.6498673854001344  0.0460756968825800  0.8125926187157976
  0.4050729149076578  0.7326245101976322  0.9053755270761236
  0.4688664805729981  0.6713063809261082  0.8624612187739854
  0.1856946932145854  0.1707966770539772  0.8544316707773766
  0.3280755140776307  0.2043606779675737  0.8575387099162867
  0.9760014041035137  0.5865251605323054  0.5603433913236067
  0.4903665690792177  0.1759055527834189  0.6046758969992891
  0.5446781270577148  0.2818137403944690  0.6009453537308608
  0.0905712481140839  0.4620421588483242  0.5696107345879792
  0.1072182281751994  0.3712954290830069  0.5381558332993036
  0.5179787454496509  0.3709616651518175  0.7415163173577628
  0.4357138583310583  0.2934321884113641  0.7238129961669600
  1.1745156685549356  0.3364359386180089  0.6773067685865662
  1.0870461694987408  0.3867810303763544  0.6386149136439683
  0.6514193053451023  0.4253762612616859  0.5750653091508716
  0.7315074415467339  0.3358486929639488  0.5809305450067426
  0.1890196834081041  0.9612423892679858  0.3869230931072083
  0.1187424195162102  1.0128473105240474  0.4240480010684954
  0.6808250976409641  0.5927468097249062  0.6327903288978414
  0.6375683461062567  0.6965172889702769  0.6354080023098012
  0.3413380821238069  0.9065167618533492  0.8025615339844225
  0.3501450541454679  0.8127062314379248  0.8353154538318899
  0.0373890289665669  0.8630757631603772  0.8976592089230018
  0.1237616791851880  0.7703563655267676  0.9059492219067623
  0.4231526059963214  0.6988966839864241  0.6968592814512576
  0.3734337724619881  0.7824899787052706  0.7379795266824587
  0.8761895351421791  0.8107224825421505  0.8560292898974020
  0.3411319569584154  0.3439044788873246  0.4055666066795997
  0.3978135828743109  0.2703164695031674  0.4454132168960006
  -0.0623056823815317  0.3774108907594860  0.3544146239091853
  -0.0025683574675215  0.2768094865204742  0.3540574996135736
  0.7550853500715871  0.4565147742020861  0.6278442460078717
  0.8687855096850753  0.5216269574885085  0.6220182367345732
  0.3470065753591696  0.8293735850520906  0.5449107802035820
  0.4334754152318683  0.9225556709419075  0.5563019040150022
  0.8273170919296802  0.9865836055370490  0.4165112175314934
  0.8403824650981390  1.0095035121325326  0.3582498521648751
  1.0929546022520187  0.1714868711087024  0.5931637129674100
  1.0469098790456450  0.2359200420108574  0.6399963232662692
  0.2579394401181105  0.0442456439538403  0.8798613196001602
  0.2282127917048267  0.9375351428985224  0.8998305880839177
  0.9160002846646959  0.0333720846354478  0.9354949445159892
  0.0456878814430591  0.7395324874645642  0.6410280166402887
  0.3301018862351079  0.9874645242876063  0.6675105143243406
  0.3964732451653860  0.8883863354466471  0.6723658888246150
  0.9966993954706574  0.8725023798767949  0.3818672438309967
  1.1507644712742717  0.7633434105888116  0.4363043478628262
  1.2100164219415113  0.6707744977593086  0.4248007950463116
  1.1982972637445373  0.0595813860733907  0.7091714191352632
  0.3273024608807713  0.0839848804743046  0.7306992939463849
  1.3157958685121953  0.6589884890575129  0.3338918487729990
  1.2720854825056427  0.5776414169528991  0.3643882603752722
  0.4390918303137070  0.1419096864232317  0.4874413100708163
  0.4424576049005879  0.2228605197445004  0.5335103797430838
  0.5908595198199371  0.0231995503593836  0.6009677708204110
  0.4658384930037273  1.0039127498714995  0.6201939012092067
  0.7637700687644903  0.3029743240442287  0.8707370613281731
  0.7277253228867652  0.2843414088645046  0.9251034562612044
  1.0114393212253527  0.1791335845005887  0.8831329888531320
  1.0984599932069894  0.2203281011479547  0.9196767108805173
  1.1596692667112922  0.0680430892911943  0.5253419677277915
  0.9680172187370603  0.3300521620670514  0.8756261497414222
  1.0097037873817709  0.6039661249630928  0.6173934052581310
  0.9785530676127708  0.8617389947085753  0.8305594063043815
  1.0179319456489377  0.6888975316723854  0.6921493876830884
  1.0891706933231353  0.8126001382113009  0.3542022255390651
  0.4965229012547221  1.0217896331707452  0.4098251362321161
  0.6572852642335063  0.8924821064704392  0.8910718728466046
  0.8525553566361725  1.0820738466072590  0.6643141433015310
  0.6534503043078986  1.1251568274938668  0.3788707749064528
  0.7983927297981448  1.1484298619094548  0.3822596211493102
  0.7167734763451311  0.1842481024098237  0.4503875041640966
  0.9614685498582889  1.0244427919386767  0.4866096040527834
  1.0340717898293212  0.9487839349106812  0.5162660880587736
  0.9035913635964944  0.9831348189385573  0.8872762077933308
  0.7743654046956606  0.5535265315172744  0.3959709724516293
  0.8296195148895621  0.6436581274668267  0.4189467196373371
  0.6372892262765754  0.5537444435570544  0.3891294420177006
  0.7544318145906265  0.7294811603960086  0.4058685742565429
  0.5643032924276642  0.6373676284906633  0.3940417419667668
  0.6203829533619473  0.7255365128049052  0.4164349120205054
  0.5941764463203469  0.4793452691962334  0.3760745297129304
  0.7971968877204869  1.0263908856637876  0.4765165886331199
  -0.0144526669875045  1.1763679471080348  0.3840708293553696
  0.6451137079659746  0.8143770363615400  0.7521729595802965
  0.5330009738334328  0.5705424790999232  0.8475688471772577
  0.3771836923480782  0.0394751219955006  0.7846788222229681
  0.0716272295232927  0.6585269195336445  0.8772130439543986
  0.0752951979763634  0.8460325980894403  0.7801931716585226
  0.6478733651993951  0.0980038373632885  0.8695168572479853
  1.0032737199960062  0.1277356907429882  0.7894305379260638
  1.0689584653454303  0.2313091819978325  0.8844224929249280
  0.7589075735826529  0.2922672958559817  0.6930573940472365
  1.1083883705102318  0.2499482668486196  0.4683944559313456
  0.6433984163528655  0.8951333659438027  0.3465223187843939
  0.7853690372252174  0.9166913462358507  0.5995355912739250
  0.3843727864860055  1.0306419255080366  0.4598473175545490
  0.9740177930749487  0.6656264682083318  0.5165688845045179
  0.1821232118972271  0.5160308235352171  0.8114773624604158
  0.8042616696298518  0.5126659654102380  0.7466267440621427
  0.3601389173777556  0.1452445815805761  0.3489383191251261
  0.6600300394922229  0.8258669972365167  0.9026873625610659
  0.4525412411181795  0.2861937803476889  0.8490242818437737
  0.4982693813971049  -0.0109669794996363  0.9212557873456078
  0.1717720585617692  0.8268029923319962  0.6171855060893843
  0.3548354391631695  0.4384607826190234  0.3735499052923824
  0.2745117255735412  0.7176329172615494  0.5540075016572626
  0.3101816945619903  0.2684276495038376  0.6848072232959104
  1.0170218168864176  0.3786342682730007  0.7678210392477707
  0.7449265665475054  0.7797285437222564  0.6643789533243494
  0.8496668061678513  0.2834355073158924  0.5442338878093618
  0.3359089453455987  0.5468999899655506  0.5772118013009110
  1.1948559627368804  0.1302256230355471  0.5386788801213873
  0.8012375877504505  0.6874534606551982  0.7841653036845097
  0.0606359321919063  0.6664951754909125  0.7653642798014445
  0.5821789915310475  0.5096539818401928  0.5398408091759779
  1.0589644960087163  -0.0052058633885904  0.7153437057135612
  0.4298970137182441  0.5762497993485028  0.6658486900836464
  0.9901230166497295  0.8517759292548993  0.5507880676447089
  0.7420970992061944  0.3490730432121768  0.3415657505008913
  0.3365526853048640  0.4564224359432382  0.8843454346374494
  0.7547650783033880  0.5734286213840289  0.8870390302178599
  0.8980961678748826  0.3640845002972711  0.8617930529586857
  0.7789598572742179  0.1181388295520979  0.7276998147704719
  0.5711246856233548  0.4772220977547171  0.7398663768850061
  0.6194216951146206  0.0163755085922450  0.7804657727572101
  0.4499435951348563  0.7359836116068110  0.8743873437483396
  0.2706000145301541  0.1506365406499292  0.8473213508649685
  -0.0088501693356334  0.5503377464961708  0.5951011273650155
  0.4656646689143250  0.2421635372214436  0.6025886031667791
  0.1488325503107595  0.4126060686850144  0.5616548154144524
  0.5061377602968430  0.3036264272226140  0.7464426663880120
  1.0849623979012000  0.3491341284699088  0.6703996644451472
  0.6679204822018850  0.3702003065736352  0.5987303935554450
  0.1846677096545182  1.0256935378980072  0.3990437418491711
  0.6231258677295947  0.6355438576118631  0.6166960707598012
  0.3106373499014745  0.8422297554388037  0.8055424515215073
  0.1141345533054845  0.8351496733560326  0.9141525358304284
  0.4290057308894316  0.7705844652159493  0.7083554497907723
  0.9107693915275277  0.8713718588744974  0.8536478512663611
  0.3359323031591878  0.2781200540612786  0.4190676994290818
  0.0158973858086262  0.3472426674421334  0.3462111159109425
  0.7938008152381811  0.5135238895366394  0.6428492415313991
  0.3790404370642536  0.8947176325050346  0.5325070003589292
  0.8596176808801430  0.9620866202967248  0.3839802197886503
  1.0151089904307389  0.1919683583986944  0.6133270415408205
  0.3561531441204341  0.9319187295104235  0.6477954339547387
  1.0686460445388950  0.8342368825356111  0.3881717966648632
  1.1750659076378254  0.7052407770674464  0.4530698061155416
  0.2746917794776420  0.0875811827218370  0.6998252609071468
  1.2504863331736307  0.6419809434570741  0.3587588629224496
  0.4678604959582580  0.2061714163439584  0.4983378030040112
  0.5093419369056810  0.0417362450069403  0.5951154595178044
  0.6943187813191449  0.2781696403353298  0.8889411280133276
  0.9816636348981480  0.7041197587666164  0.6589072544612229
  0.5480100864451105  1.0415455305210641  0.3826297451463402
  0.9027814993178914  1.0454731600299898  0.6426266967946294
  0.7202699583759989  1.1710181655816709  0.3910645433023566
  0.7009254641354208  1.1815555182091722  0.4878292263719898
  1.0452529020503059  0.0088727822692068  0.4964584740431033
  0.2640195773861216  0.9952374752185384  0.9088865336163129
  0.8890787366698178  1.0464178209018666  0.8994360316706569
