combine
1.000
11.0985002518  0.0000000000000000  0.0000000000000000
0.0000000000000000  14.4173002243  0.0000000000000000
0.0000000000000000  0.0000000000000000  26.7964000702
Pt  H  C  O  
96  170  6  81  
Direct
  0.4999999886561249  0.3333300219343480  0.0018699899937576
  0.1249999521128992  0.1666699702868031  0.0018699899937576
  0.2499999943280624  0.0000000000000000  0.0018699899937576
  0.3750000365432257  0.1666699702868031  0.0018699899937576
  0.4999999886561249  0.0000000000000000  0.0018699899937576
  0.6250000308712881  0.1666699702868031  0.0018699899937576
  0.7499999829841874  0.0000000000000000  0.0018699899937576
  0.8750000251993506  0.1666699702868031  0.0018699899937576
  0.0000000000000000  0.3333300219343480  0.0018699899937576
  0.1249999521128992  0.4999999922211510  0.0018699899937576
  0.2499999943280624  0.3333300219343480  0.0018699899937576
  0.3750000365432257  0.4999999922211510  0.0018699899937576
  0.0000000000000000  0.0000000000000000  0.0018699899937576
  0.6250000308712881  0.4999999922211510  0.0018699899937576
  0.7499999829841874  0.3333300219343480  0.0018699899937576
  0.8750000251993506  0.4999999922211510  0.0018699899937576
  0.0000000000000000  0.6666699625079541  0.0018699899937576
  0.1249999521128992  0.8333300141554991  0.0018699899937576
  0.2499999943280624  0.6666699625079541  0.0018699899937576
  0.3750000365432257  0.8333300141554991  0.0018699899937576
  0.4999999886561249  0.6666699625079541  0.0018699899937576
  0.6250000308712881  0.8333300141554991  0.0018699899937576
  0.7499999829841874  0.6666699625079541  0.0018699899937576
  0.8750000251993506  0.8333300141554991  0.0018699899937576
  0.0000000000000000  0.5555599783168760  0.0864100026098289
  0.3750000365432257  0.7222199606033073  0.0864100026098289
  0.6250000308712881  0.0555599860957249  0.0864100026098289
  0.4999999886561249  0.2222199683821562  0.0864100026098289
  0.2499999943280624  0.8888900002512240  0.0864100026098289
  0.6250000308712881  0.7222199606033073  0.0864100026098289
  0.4999999886561249  0.8888900002512240  0.0864100026098289
  0.6250000308712881  0.3888900080300730  0.0864100026098289
  0.4999999886561249  0.5555599783168760  0.0864100026098289
  0.7499999829841874  0.2222199683821562  0.0864100026098289
  0.8750000251993506  0.0555599860957249  0.0864100026098289
  0.3750000365432257  0.0555599860957249  0.0864100026098289
  0.2499999943280624  0.2222199683821562  0.0864100026098289
  0.1249999521128992  0.0555599860957249  0.0864100026098289
  0.0000000000000000  0.2222199683821562  0.0864100026098289
  0.1249999521128992  0.7222199606033073  0.0864100026098289
  0.1249999521128992  0.3888900080300730  0.0864100026098289
  0.0000000000000000  0.8888900002512240  0.0864100026098289
  0.8750000251993506  0.7222199606033073  0.0864100026098289
  0.7499999829841874  0.8888900002512240  0.0864100026098289
  0.8750000251993506  0.3888900080300730  0.0864100026098289
  0.7499999829841874  0.5555599783168760  0.0864100026098289
  0.2499999943280624  0.5555599783168760  0.0864100026098289
  0.3750000365432257  0.3888900080300730  0.0864100026098289
  0.6236000301371818  0.6110863046155205  0.1677352415818911
  0.7527530706002411  0.1105261198843744  0.1701677710794817
  0.4996183054463315  0.1169648932299927  0.1719774001667085
  0.6252744012033973  0.2762305474285399  0.1724014350098304
  0.1276942944854328  0.9523742429915766  0.1678987944019907
  0.7418126192829284  0.4472219127498300  0.1715499520740545
  0.8769291916825904  0.6164721405412456  0.1685359344303256
  0.8692760741826628  0.2846235577853645  0.1727085225954181
  0.5018164864569634  0.7791297462382830  0.1716768219480336
  0.2484696437928858  0.7802387989216037  0.1695331646526687
  0.4986352419645579  0.4384188133397141  0.1686900616522353
  0.3709945496223428  0.9490514652901553  0.1701882015477000
  -0.0007898449250905  0.4538123513494128  0.1723732502126927
  0.3727360218718808  0.2737148722441618  0.1764552791573808
  0.0013012412373156  0.7875315595608520  0.1729027281225175
  0.8732407088721890  0.9526053691558486  0.1713405605332020
  0.1225916412156079  0.2844508181072518  0.1734107058383428
  -0.0012481378822110  0.1162612264517355  0.1710211966978517
  0.2487769544585271  0.1210486431265764  0.1719765677377276
  0.1277953920188422  0.6173568034671449  0.1704075466046704
  0.7472838498836712  0.7776713730496218  0.1716000857448640
  0.2483880327842405  0.4478260545214857  0.1713461005609523
  0.3708615623297796  0.6185428162319468  0.1725318961236681
  0.6274103306499147  0.9482092152841844  0.1725328854543219
  0.4942516456320615  0.6752689304125724  0.2584928522134989
  0.6229849595109597  0.5177619764564786  0.2541497418667690
  0.4933600117648285  0.3445753684956090  0.2565406790647566
  0.5017532405873347  0.0140147536609830  0.2532812010165418
  0.7444917001790322  0.6743429576581519  0.2548595442823984
  0.8758318453003145  0.8486576035142571  0.2501933133494211
  0.3723841966061773  0.8475216261297815  0.2568855745871323
  0.7533465440561643  0.0187116547899382  0.2579653111757861
  0.6296877432035524  0.1845089777915863  0.2612955960523447
  0.7457764331228088  0.3581207281511463  0.2596551590277876
  0.2456199277067083  0.3451480819420616  0.2564151140638167
  0.8790030758000653  0.5209053659673397  0.2575971128478707
  0.2537805663916793  0.6749969427075934  0.2584262750353956
  0.3700005774324326  0.1783959252762857  0.2611230372165352
  -0.0056240647640546  0.3484350121691320  0.2559123281088114
  0.1285143196323912  0.8463433508954650  0.2569425984483972
  0.8718887228236626  0.1837393570007742  0.2552774834410413
  -0.0004263983324443  0.0127997446213242  0.2581410243681427
  0.2449022604256080  0.0193569488086005  0.2536478288611128
  0.0008015854483183  0.6783981613918897  0.2551505295557774
  0.1141014852339727  0.1816461133330635  0.2613933480747483
  0.1238699385691354  0.5168170953977462  0.2542072999042650
  0.3803129141899543  0.5136957865327096  0.2568391986897452
  0.6242728721546236  0.8417058445135621  0.2559070428727488
  0.6916124154121722  0.6558781341365258  0.3463144910804706
  0.8247175460500177  0.6978393789180102  0.4276514328782549
  0.6269856155809362  0.8032936067863778  0.4315202591918048
  0.4855679944707824  0.6800078530358832  0.3720903783187016
  0.4357029596513037  0.7321419914741700  0.4539063257689755
  0.5071312745870473  0.6429116965655779  0.4860865269131945
  0.6473990297774406  0.7553570615700174  0.4911614457546710
  0.7494680146221518  0.6202383855354699  0.4649282057463704
  0.7790722204919236  0.5574459945110988  0.3794810547782699
  0.4036361400157156  0.5872657177749162  0.4029235719654418
  0.7734304851241341  1.0107954212840535  0.4667018173388042
  0.8671864642827812  0.9274341759120304  0.4878263707160137
  0.0207836387229517  1.1424608140044279  0.3460700842503426
  0.0174810375274384  1.1663562796145108  0.4041218792498487
  0.5393999354758837  0.8321456736247235  0.7371229100384369
  0.6193580866554610  0.9132496567705536  0.7606964534899877
  0.4633396252584657  0.5804003893389326  0.8538320059060543
  0.3339425157285466  0.5555452886387321  0.8586182910437594
  0.4143727409074148  0.0639560156308508  0.7874234444336878
  0.2942268589371245  0.0977950076827547  0.8213297979856491
  0.1290632320225146  0.6486347977298951  0.9146767944421522
  0.0235658049075218  0.6798687361160164  0.8877644218991707
  0.0266343786451740  0.8031943466213166  0.7714477818118988
  0.0943308630578446  0.8690290068165880  0.8036662006867576
  0.5218653782758298  0.0363437127234715  0.3391770755769346
  0.6969656700548762  0.1064121344032349  0.8814408079675947
  0.5858089293862514  0.1840914629929518  0.8711703864416055
  1.0799098548433299  0.3369387957124169  0.7313643517247922
  1.0716866264134168  0.2913160349689480  0.7855858264636993
  0.6193290655631789  0.2973850978474834  0.6351588208495116
  0.5634799999383462  0.3066500489077978  0.6878784314762779
  1.2003152469577527  0.2147231054869918  0.4546723174934694
  1.1238102915821568  0.1508383478922516  0.4935183130291761
  0.6182560198606238  0.8971869473799510  0.3481554432222048
  0.7299258199580735  0.8461165398664147  0.3397095332974724
  0.7102388747814434  0.8885507026418316  0.6217760220981671
  0.7524349466627814  0.9942515661940429  0.6336942134545934
  0.3751335973907609  0.9625740846201878  0.4638470991938444
  0.3338520190688887  0.9941341932758354  0.4085463107850326
  0.9765718876514121  0.7089273126374289  0.5177211854038591
  0.9318131267350952  0.7872842046300037  0.5429767743160659
  0.0876032306835614  0.4572184553172855  0.7985844076308525
  0.1198535547615331  0.5351785318651520  0.8378064916662680
  0.6849190876007905  0.6027583631124620  0.7615219287233046
  0.6816019173377156  0.5412082309105724  0.7149849415670783
  0.3529583352007110  0.2098960038509518  0.3599389041077267
  0.2944663236611596  0.1070792200538333  0.3445857011691900
  0.5541570339472234  0.8042010107522014  0.9016622591394108
  0.4267933788109588  0.3089253290427507  0.8676714602479983
  0.3855528991771663  0.3115203053363664  0.8128033897777761
  0.4143161673627237  0.0117693509575395  0.9123112171618483
  0.5437971002092076  0.0605211149955341  0.9024969979230311
  0.1847621744629350  0.8724122059829471  0.6264134892980315
  0.1522627549002332  0.7964822553147282  0.5850033054228466
  0.4105665533738200  0.4582475924698151  0.3788815457935587
  0.3192906289320737  0.4190085486059375  0.3417565476223929
  0.2100221916219680  0.7053802673789965  0.5093163959989397
  0.2957325231278596  0.7009919742370277  0.5566824148102317
  0.3666116917139411  0.2302701873478666  0.6259895553042771
  0.3031459895272189  0.1895420723634601  0.6720927691711979
  0.8981710325035396  0.3557521966876449  0.7714686894748136
  0.7649688281912734  0.3958559165592391  0.7705804191273923
  0.7986899896913870  0.7771513327380962  0.6640872963450714
  0.6895025147166974  0.8266381920252096  0.6923568508417753
  0.8971269595263712  0.2207108020152572  0.5542265377249667
  0.8191055155515818  0.2206184491004059  0.5111980245224694
  0.2938269984154941  0.6019341972343060  0.6216146930767807
  0.1976746385660698  0.5370147713682580  0.5939006675713220
  0.8979603276112617  0.1109825392415096  0.6470759069529962
  0.2206495378060500  0.0001296290894220  0.5357976913013316
  0.7047274633643847  0.6849113721691565  0.8306078077686305
  0.6491011004060316  0.7601017113474220  0.7865605415497399
  0.8643626079338194  0.7019364998477970  0.7739642946241923
  -0.0136846939455056  0.6407252456899231  0.7800492167209231
  0.3862648578311040  0.4742459944807019  0.5832680410747184
  0.3955952959939726  0.4218365280171785  0.5356422194585062
  0.9883332260970125  0.0165211415587043  0.6959151604524024
  1.0755073316112316  -0.0610844375506344  0.7233760114052262
  0.3875545391371597  0.6084853188264615  0.6824481530799711
  0.4514773465259272  0.6688931355917730  0.6456810027381735
  0.6452697245412518  0.1259941096279831  0.4779647680676088
  1.0066168550194960  0.8998223798471171  0.5770192939459496
  0.8633154425388270  0.9262805149046826  0.5708757234301818
  0.7061459773836503  0.2908340317026022  0.3539246536719294
  0.6800543699925493  0.4036367444087505  0.3640570342188950
  0.2683493121529615  0.4118792628242099  0.8689860663371638
  0.2420194305410197  0.4505573784508874  0.9220866710591541
  0.6726279209021300  0.5267263929414848  0.8858724845431383
  0.6138415205509488  0.6133560541588395  0.9175220556153048
  0.7869533051804439  0.3902856900708815  0.8525365882078164
  0.6719791453345633  0.2204796837304077  0.7068359455628412
  0.7509453803858136  0.2187806922674489  0.7567242383110402
  0.5168373058936222  0.5354698246893744  0.7501901350904097
  0.3807025814604757  0.5462167206608443  0.7649182940955775
  0.6120796756929618  0.0999671626016914  0.7576766775541154
  0.5980076483237982  0.0731904776819083  0.8108496690517515
  0.3894783625741630  0.7542873228977238  0.9161362736258316
  0.4010050847165760  0.7030217968282696  0.8649912598549661
  0.1342821049410070  0.1889686879661465  0.8600390950025099
  0.2608074473423151  0.2317582834245397  0.8653003590092667
  0.8711896461715049  0.6326472543678234  0.5812828487593089
  0.4905618625829186  0.1239979903509846  0.5835079516478983
  0.5169071591875278  0.2333668079360092  0.5673824660913314
  -0.0060490590239084  0.5188648806516205  0.5969459402641547
  0.0396576014339069  0.4337065041179438  0.5709353842837223
  0.4103553179323810  0.4019102600106489  0.7380344136484747
  0.3710900242608940  0.3142999010981621  0.7129108655809608
  1.1870144339243829  0.3026949501228055  0.6652682783134364
  1.0758711483890295  0.3693509180883098  0.6553811478927110
  0.6073119795719100  0.3806411880672652  0.5605753385547168
  0.7181719876707927  0.2987908092972485  0.5606770795756321
  0.2099066713650944  0.9594713482060148  0.3445652019118808
  0.1608843887272434  1.0190035675152422  0.3902193327315088
  0.6083276806255881  0.6032456494483711  0.6251948890414876
  0.6419564340095841  0.7107812082894700  0.6273210640183779
  0.2915579334041278  0.9485381694729865  0.7984377949034074
  0.3083587530707091  0.8725417470531158  0.8419801059953201
  0.0287969245888124  0.8718278961698100  0.8935414435287348
  0.1299136656924574  0.8007977282140948  0.9027705439658128
  0.3862228794566003  0.7454061505764187  0.7068569518472123
  0.3361487600628681  0.8076341940757041  0.7561745418681818
  0.8045109835134598  0.8538623948089216  0.8937385117388738
  0.3227425118019043  0.3212138738704007  0.4129640505108867
  0.3948208227764217  0.2397664653312605  0.4378412371424350
  -0.1082085597110497  0.3705637696643995  0.3481895979481233
  -0.0161561600605378  0.2895651526395744  0.3543543732413429
  0.6874113757633747  0.4442058639734642  0.6508770724988591
  0.7595457367253577  0.5426446944493626  0.6415125982581920
  0.3144351220367830  0.8706869939451151  0.5366394910819329
  0.3957086164491211  0.9576777313639090  0.5531662639073804
  0.8657412015953836  0.9002490632694149  0.3999466893210932
  0.9081982532068008  0.9113573282780099  0.3454118546130110
  1.0639502432308265  0.1426927406653131  0.5799652480552029
  1.0634678896534473  0.2196638609399399  0.6219321081802170
  0.2239838788125295  0.0613542894327116  0.9061266247999697
  0.1946596312280673  0.9495710925493126  0.9055058337587694
  0.8717926521045736  0.0715074886047228  0.9210868118941240
  0.0262563427209671  0.7799120323684553  0.6443701781756210
  0.2919446843707103  0.9722179658834532  0.6702896473162689
  0.3414800077862174  0.8676483402500106  0.6832308513657503
  1.0429590373909008  0.8160582348399588  0.3700668061762517
  1.1132787700478808  0.7186557297486714  0.4295330534156371
  1.0771637879055871  0.6231846512952969  0.4506405295213176
  1.1714754137426220  0.0544886454522134  0.6979623694601902
  0.2934781821148978  0.0966940989236205  0.7287440256169548
  1.0246740632326052  0.4573706650768008  0.3912244374481663
  1.1595609623753254  0.4894085022386767  0.3994971151220053
  0.4506793298300621  0.0955921408556861  0.4592571201601763
  0.4660602975218288  0.1708327095421628  0.5029071850806793
  0.5596789310152583  -0.0211516021068921  0.6047790809528335
  0.4277447638233877  0.9575802627062451  0.6208889328683553
  0.6089404159272697  0.3389920863312877  0.8821707528911202
  0.5282583713370763  0.2939142228971471  0.9233980529764243
  0.9340878069285660  0.1390343121121572  0.8509552375790382
  0.9223973550876556  0.2482415240245695  0.8497856008846356
  1.0767148640251563  0.0015382639228543  0.5376508377116669
  0.7726556620755330  0.4051747657757903  0.9114820220631862
  0.9209489228008344  0.6370243892972630  0.6367491384663690
  0.8780954723427093  0.8513516815382782  0.8433252632927769
  0.9740625154147909  0.7361510050135136  0.6974502044953425
  1.1385568395198797  0.7587109948271260  0.3406307249663284
  0.5230635650306432  1.0064472395007307  0.3940110055918118
  0.5803391854188037  0.9019017876650571  0.9074052826200589
  0.8149837073106366  1.1226632603945699  0.6938774282698349
  0.6802206433590523  1.1133822061598477  0.3623463341778481
  0.8217963885274289  1.1492304109179678  0.3664426230268144
  0.7434566189302719  0.1422466004171438  0.4357281302940651
  0.9772686391425649  0.9869789790613094  0.4402786686305787
  1.0864402346113753  1.0193597973724342  0.4683648558321560
  0.8613893225122465  1.0018586612738241  0.8760276169225292
  0.7051088149347750  0.6124829932664275  0.3842669193072376
  0.7356015966910410  0.6686779648488644  0.4330392971966623
  0.5886662672770044  0.5612142423352254  0.3925765329238676
  0.6318012180305854  0.7362067251266764  0.4520249632401310
  0.4894502439749902  0.6267740589579588  0.4028453328924878
  0.5119835486221149  0.6841569945512396  0.4521233370662082
  0.5745663807923760  0.4747241846545029  0.3882341215255021
  0.8213937748139881  0.9505992894842016  0.4585072232431518
  -0.0283280177471735  1.1708290945102782  0.3731881945672624
  0.6262466299690137  0.8554507812019165  0.7404381058769552
  0.3862879175143220  0.5950952383816760  0.8385646842610485
  0.3298027335005335  0.0522594196609776  0.7949729456603462
  0.1056497101047351  0.6828554392109151  0.8833314623901021
  0.0313894066492001  0.8696880374223310  0.7783140699632172
  0.6085320647899830  0.1124592082966575  0.8694175385673780
  1.0627559994592097  0.3515078331419054  0.7681831430406152
  0.9751382279821772  0.1985797890214224  0.8412354136094876
  0.6394391438563070  0.3158745986106503  0.6714814420243765
  1.1193186102856758  0.1824966766083799  0.4620497083736663
  0.6423089274556572  0.8371119107208561  0.3360646996726522
  0.7124397776102773  0.9547488985281448  0.6089546809627928
  0.4021309501953801  0.9965608692731230  0.4353102233039223
  0.9177653378750902  0.7191931043943726  0.5434633288109176
  0.0783740073762603  0.5273051982080864  0.8054011345464630
  0.6590040458136488  0.5413437165888623  0.7506334639580515
  0.3621838053522654  0.1494894237318723  0.3395767149864055
  0.6247128892550610  0.8438276683657449  0.9134994562990677
  0.3535989171837449  0.3128984543719612  0.8475541782292284
  0.5017667907244332  0.0041608351332583  0.9206167504841212
  0.1153806702119338  0.8438714660595001  0.6073512556710582
  0.3344522982281309  0.4304759612302055  0.3786715000193033
  0.2444788468297721  0.7423113581946386  0.5371680406394442
  0.3327229873154346  0.2509803040725460  0.6595105285710902
  0.8129158488181095  0.3429487143970510  0.7827622685379413
  0.7136296451509713  0.8001966513921395  0.6594495538171785
  0.8419437484343437  0.2611430980575838  0.5381741976131186
  0.2808841530272893  0.5647685350254499  0.5914254131107887
  1.1476153706474252  0.0440282536691657  0.5387842527047418
  0.7237277240947299  0.7340348255884241  0.8050309911587685
  -0.0568053528581711  0.6886436440690858  0.7603042270165635
  0.4335338698955868  0.4246746363150853  0.5670406015208665
  1.0716168492018630  -0.0045577204454165  0.7004147325435837
  0.3739412818886863  0.6669213381152882  0.6646703371064823
  0.9391904531974449  0.9170440808547379  0.5525152932712389
  0.7389867389307688  0.3534513621982521  0.3524816401738960
  0.2406171857829970  0.4712400541364095  0.8862101408990778
  0.6251515725626736  0.5827637264596073  0.8855256674641406
  0.7300993345461988  0.4017335269149681  0.8801812399468315
  0.7001943569663522  0.1766884775560455  0.7331350464179486
  0.4304134957536497  0.5284984720480113  0.7373986956245844
  0.5757903473456765  0.0507876700913712  0.7773048647778507
  0.4160681713955970  0.7645598080229471  0.8816380922739251
  0.2197984888007155  0.1683010139450578  0.8697920369169215
  -0.1114304995487498  0.5927451663104228  0.6110394998994277
  0.4568845882737721  0.1828641722363804  0.5722593674197800
  0.0565963754155095  0.4655070299977647  0.6015278307001218
  0.4173018768953811  0.3352949095734535  0.7420362340243113
  1.0953259380003539  0.3120509076808405  0.6709238572420603
  0.6370200031984830  0.3209543782060394  0.5735422075031473
  0.2284467951774651  1.0101328301850698  0.3668854723673568
  0.5822837200325232  0.6670861797474263  0.6160812703777782
  0.2794691074406161  0.8793352018522964  0.8086123465329452
  0.1150704581002170  0.8706844034947936  0.8914632872258690
  0.3888471889343855  0.8060320523126391  0.7258270361148118
  0.8761164601156800  0.8775708631686138  0.8766101166933606
  0.3209575964123870  0.2546826730091402  0.4201024418731176
  -0.0251311970511298  0.3509601731724826  0.3395344248356004
  0.6830611444704422  0.5138400836110554  0.6522042062260328
  0.3351768748932255  0.9333967255893347  0.5296217046439281
  0.8804978087480877  0.8612939993626931  0.3680920800204481
  1.0109089927695738  0.1827595818847514  0.6001953183661346
  0.3087386372446376  0.9085857912510809  0.6540304560719746
  1.1276467338702123  0.7986522165081054  0.3706389343897369
  1.0993646662503922  0.6861013632377396  0.4620562795511206
  0.2587431608098817  0.0860726771582681  0.6960340766945713
  1.0741763677544165  0.5043397665219279  0.4063972794730229
  0.5028712703587885  0.1503544447833851  0.4716389789744497
  0.4756760656507425  -0.0054562527849294  0.5974439881386840
  0.5526246064827791  0.2856975242464293  0.8877068982170356
  0.9564682957121488  0.7485872072781928  0.6637996348875694
  0.5771525552167397  1.0230750849135593  0.3661739048340296
  0.8492157159226456  1.0739285409346986  0.6704921202188150
  0.7338102936276584  1.1655277794921461  0.3708576528550773
  0.7345803408688264  1.1216335195020981  0.4707707239611252
  1.0648627321590813  -0.0206310387570806  0.4387347480482759
  0.2496865774049574  1.0007949744974225  0.9180940556585883
  0.8565147120988958  1.0702634922447267  0.8846629919540184
