combine
1.000
11.0985002518  0.0000000000000000  0.0000000000000000
0.0000000000000000  14.4173002243  0.0000000000000000
0.0000000000000000  0.0000000000000000  26.7964000702
Pt  H  C  O  
96  170  6  81  
Direct
  0.4999999886561249  0.3333300219343480  0.0018699899937576
  0.1249999521128992  0.1666699702868031  0.0018699899937576
  0.2499999943280624  0.0000000000000000  0.0018699899937576
  0.3750000365432257  0.1666699702868031  0.0018699899937576
  0.4999999886561249  0.0000000000000000  0.0018699899937576
  0.6250000308712881  0.1666699702868031  0.0018699899937576
  0.7499999829841874  0.0000000000000000  0.0018699899937576
  0.8750000251993506  0.1666699702868031  0.0018699899937576
  0.0000000000000000  0.3333300219343480  0.0018699899937576
  0.1249999521128992  0.4999999922211510  0.0018699899937576
  0.2499999943280624  0.3333300219343480  0.0018699899937576
  0.3750000365432257  0.4999999922211510  0.0018699899937576
  0.0000000000000000  0.0000000000000000  0.0018699899937576
  0.6250000308712881  0.4999999922211510  0.0018699899937576
  0.7499999829841874  0.3333300219343480  0.0018699899937576
  0.8750000251993506  0.4999999922211510  0.0018699899937576
  0.0000000000000000  0.6666699625079541  0.0018699899937576
  0.1249999521128992  0.8333300141554991  0.0018699899937576
  0.2499999943280624  0.6666699625079541  0.0018699899937576
  0.3750000365432257  0.8333300141554991  0.0018699899937576
  0.4999999886561249  0.6666699625079541  0.0018699899937576
  0.6250000308712881  0.8333300141554991  0.0018699899937576
  0.7499999829841874  0.6666699625079541  0.0018699899937576
  0.8750000251993506  0.8333300141554991  0.0018699899937576
  0.0000000000000000  0.5555599783168760  0.0864100026098289
  0.3750000365432257  0.7222199606033073  0.0864100026098289
  0.6250000308712881  0.0555599860957249  0.0864100026098289
  0.4999999886561249  0.2222199683821562  0.0864100026098289
  0.2499999943280624  0.8888900002512240  0.0864100026098289
  0.6250000308712881  0.7222199606033073  0.0864100026098289
  0.4999999886561249  0.8888900002512240  0.0864100026098289
  0.6250000308712881  0.3888900080300730  0.0864100026098289
  0.4999999886561249  0.5555599783168760  0.0864100026098289
  0.7499999829841874  0.2222199683821562  0.0864100026098289
  0.8750000251993506  0.0555599860957249  0.0864100026098289
  0.3750000365432257  0.0555599860957249  0.0864100026098289
  0.2499999943280624  0.2222199683821562  0.0864100026098289
  0.1249999521128992  0.0555599860957249  0.0864100026098289
  0.0000000000000000  0.2222199683821562  0.0864100026098289
  0.1249999521128992  0.7222199606033073  0.0864100026098289
  0.1249999521128992  0.3888900080300730  0.0864100026098289
  0.0000000000000000  0.8888900002512240  0.0864100026098289
  0.8750000251993506  0.7222199606033073  0.0864100026098289
  0.7499999829841874  0.8888900002512240  0.0864100026098289
  0.8750000251993506  0.3888900080300730  0.0864100026098289
  0.7499999829841874  0.5555599783168760  0.0864100026098289
  0.2499999943280624  0.5555599783168760  0.0864100026098289
  0.3750000365432257  0.3888900080300730  0.0864100026098289
  0.6252917988873743  0.6237915489157856  0.1736382006915331
  0.7530857718496196  0.1162386722082266  0.1720950265042666
  0.5085173808492429  0.1116634394549528  0.1718320171193665
  0.6211819979804813  0.2810059045431791  0.1736087544339040
  0.1183391857730498  0.9542401230926693  0.1703361138825516
  0.7558868955685615  0.4504496789249122  0.1744217628470837
  0.8703133262742807  0.6162999990819301  0.1713828254903243
  0.8739090019146472  0.2868188558514098  0.1745405447652391
  0.4916328176967028  0.7919067558332915  0.1736875937628611
  0.2484276036893210  0.7839342030174553  0.1724375841006583
  0.4953711579281472  0.4476049098445770  0.1714573528557453
  0.3693006206163089  0.9513360564818186  0.1712882742448823
  -0.0032710534915843  0.4535649881299115  0.1703287458107403
  0.3692046106892173  0.2802197715207914  0.1722031096830672
  -0.0026485373999278  0.7832602447763956  0.1699311048413532
  0.8711309403567354  0.9558045427516276  0.1725321316217195
  0.1245615577902779  0.2781052822387677  0.1722902485410437
  -0.0005432655911345  0.1205726580604935  0.1699697490397264
  0.2414390764793116  0.1140222433829365  0.1677730401442855
  0.1199732985530228  0.6184235145060174  0.1718493290716730
  0.7437475410122422  0.7871575044523297  0.1725673376381071
  0.2450736214975413  0.4536293128082890  0.1711201195864880
  0.3736045729626858  0.6188307878032818  0.1699717145612092
  0.6249793983178076  0.9489314442478604  0.1704246592615496
  0.4903208077791792  0.6861709356670014  0.2574438873552954
  0.6182122324489039  0.5243636662124829  0.2579581788856464
  0.4917111511453919  0.3501828053070961  0.2585898225450805
  0.4854360412368522  0.0281103758605871  0.2566156001882934
  0.7414252292209872  0.6882194194497155  0.2587268460217557
  0.8659334875936340  0.8647556725347536  0.2583588912265530
  0.3581170400798422  0.8620273601053778  0.2593269346477605
  0.7389229720808393  0.0187395588838907  0.2608939964653924
  0.6193908275025805  0.1814322345241307  0.2595407688749324
  0.7368102239736167  0.3491890727304621  0.2607552213616375
  0.2452913782345029  0.3544715586616100  0.2567594646510533
  0.8666013025264487  0.5244932081912822  0.2625238700934015
  0.2375029246561935  0.6926197977253286  0.2630283794739371
  0.3624492675798778  0.1872805764389287  0.2594271927269413
  -0.0002532902226627  0.3567724651686471  0.2614822903503434
  0.1100557883396812  0.8603386146037086  0.2599626077327785
  0.8656605792338302  0.1865377069950401  0.2582230526926282
  -0.0138794416997934  0.0240416202692227  0.2612920433475130
  0.2364322682674554  0.0266472697261635  0.2529873475146023
  -0.0215893512063613  0.6925247479602074  0.2583261505263955
  0.1182940578198456  0.1897399488767890  0.2572124622838771
  0.1217266540567850  0.5264863293757581  0.2610058648541367
  0.3648165318952288  0.5237285242540346  0.2556646893744062
  0.6120541865463581  0.8579625925769035  0.2612541951366585
  0.7236652288760729  0.6256292971410284  0.3593163196987653
  0.8540871572231250  0.6718066248752385  0.4214575151182130
  0.6706928473955526  0.7388523196351207  0.4353896378705963
  0.4851892412064107  0.6602858489313452  0.3888776249645770
  0.5019973615891394  0.6964286122291319  0.4892379763160534
  0.5655089091142818  0.5803104538392323  0.4970584277554633
  0.7175628269962319  0.7236227109092150  0.4954164134742640
  0.8312715642010921  0.5735805814157905  0.4555992782917456
  0.7902912729472142  0.5168623016145731  0.3773395985658805
  0.4250392179100892  0.5679870119787001  0.4329400532201194
  0.7688298431597644  1.0128962058296200  0.4756657068825763
  0.8657097251893761  0.9421316960651344  0.4933400328352887
  0.0255550478321610  1.1659499784479355  0.4249387101166314
  -0.0520927819419775  1.2385037637979097  0.4518276294980557
  0.5751281869065840  0.8004978958090850  0.7387127445717471
  0.6561995388628153  0.8683365676189098  0.7699365649322466
  0.4698793754457244  0.5353535221310651  0.8764544366807817
  0.3212916433661093  0.5116757549493406  0.8741339829356105
  0.5038784601904225  0.0247421998744789  0.7927655304872243
  0.3797791899059872  0.0604892333191558  0.7749077903636858
  0.0498728020941594  0.6475123252316999  0.8656555413499940
  0.1129838939361766  0.6347990545951442  0.9217780417142295
  0.0415182738699553  0.7412918068798074  0.7933394671078043
  0.1479121401140445  0.8219650703275395  0.7969864613922597
  0.5989404256148849  0.0674953350461457  0.3481286225709935
  0.6852204795838611  0.1151020129970673  0.8720488995082237
  0.5997729501263388  0.1912732866762433  0.8828590635019365
  1.0938847057764409  0.3026778850276647  0.7164343366238118
  1.0594979380203107  0.2265338861151845  0.7584560837148416
  0.6329584176529324  0.2583581416804998  0.6488405925479315
  0.5385333626073162  0.2736330958309875  0.6967420340787833
  1.1426796139454225  0.3571826866392406  0.4741830998310350
  1.0094511508780646  0.3502262821155310  0.4923134039587257
  0.5968213335333953  0.9178654011446520  0.3567839400648508
  0.6829905884059080  0.8401814459952489  0.3561939472278061
  0.7598617344295909  0.8942713474586044  0.6342179695659826
  0.7848351849239537  1.0017857646923802  0.6391469105078251
  0.4330914055635972  0.9460816889635284  0.4672692913450200
  0.3790192272345775  0.9881546655862684  0.4206820735086846
  1.0245831947479345  0.6749492021535859  0.4973781310617865
  0.9188076979271272  0.7433539824978118  0.5164789425013501
  0.0451437180279147  0.4118043052813145  0.7877279441604655
  0.0872634390077097  0.4558038672610816  0.8385219056005941
  0.6923635782099248  0.5218653604035153  0.7673475164996867
  0.6873553109360664  0.4716402259584733  0.7211862772003972
  0.3386209852804645  0.2197090768257062  0.3609983634875548
  0.3450751277839422  0.1082179449360640  0.3583303324567931
  0.6440969843687325  0.7948008160422670  0.8905159349011725
  0.4659623888967581  0.2923694511400562  0.8682282868501132
  0.3989571576737926  0.2776485345330564  0.8146375469433373
  0.3971411547776598  -0.0241988764936702  0.9114644367980473
  0.5233116211226863  0.0424493730850163  0.9033162162114016
  0.1725281599457052  0.8632550658911092  0.6081129437764203
  0.1745833913447675  0.7864679206782994  0.5688783758812653
  0.4238634788909471  0.4244087598583032  0.3763607066575912
  0.3309335462603895  0.3914627751447844  0.3385558836050132
  0.2562938488052627  0.6881293641703081  0.5078278195000256
  0.3171577523845274  0.6494072496124762  0.5538133798652917
  0.3148312205546244  0.1736470891395031  0.6646048574862571
  0.2426163477865660  0.1666027367628478  0.7181279717046848
  0.8563523673622989  0.3292331954424888  0.7687533688045227
  0.7202597282280128  0.3508962088875157  0.7761864282855798
  0.8479799914023189  0.7633829452999664  0.6536008169014204
  0.7337895667010664  0.7796808351784029  0.6896309750111174
  0.9442995139906637  0.2250873857249901  0.5419686463910750
  0.8305912127546184  0.2281347836369756  0.5102436719514896
  0.3551366519598676  0.5547511020419446  0.6196840702481743
  0.2546762290104541  0.5067356922266433  0.5853006163406986
  0.9673459295150060  0.0965179357127220  0.6476546850522698
  0.2219586340506209  -0.0307790075462305  0.5171843853351068
  0.6986876120530215  0.6319131357509301  0.8280162357470877
  0.7243683892421534  0.6872118187287765  0.7762069871516424
  0.8821907395201488  0.6248653212004125  0.8037179437416594
  0.0109121054694177  0.5895246742295448  0.7913444148149610
  0.4271045644776384  0.4383933421492494  0.5628022159204701
  0.4427395841886896  0.3448588800086114  0.5388195541929089
  1.0229197139369117  -0.0177786737747181  0.7025342566046967
  1.0714212855355336  -0.0924089415613655  0.7391573982404782
  0.4221191550399060  0.5450940337951911  0.7097185568836768
  0.4848977286122225  0.6008430995700229  0.6688117643955686
  0.6169097940318163  0.1680341425308443  0.4855390422711692
  0.9581689253352311  0.8570935523748494  0.5558664109723014
  0.8424717792193184  0.9188235521705088  0.5758862988003157
  0.7347221973507185  0.2887590285720176  0.3570195416711658
  0.6587281796217727  0.3931750735859579  0.3493966259076726
  0.2588503272353460  0.3858518736416267  0.8821911066288823
  0.1767881564522000  0.4472508172876781  0.9203099967418846
  0.7357113898407778  0.5505316479726268  0.8909698743545370
  0.6854992555742927  0.6321615524339622  0.9238744285778692
  0.9105527904241841  0.4584400781888350  0.8510591614267455
  0.7003427889582993  0.1583355740246323  0.7137750363702957
  0.7663790548025187  0.2073723638743994  0.7601468749547584
  0.4994867893525455  0.4858532700036145  0.7624576744366957
  0.3963215949548337  0.5042435683171029  0.8011199614896545
  0.7075844951687366  0.0315731182134068  0.7795439327885841
  0.6821147503755918  -0.0368765623680292  0.8276108177293113
  0.4491966876868292  0.7258945729284850  0.9089163964373599
  0.4085908523509324  0.6764229060696761  0.8619756499413843
  0.1254739418394973  0.1876422368204758  0.8780738216834806
  0.2647144238631263  0.1949084845416289  0.8619688896788293
  0.9632645006397258  0.6193353514169144  0.5759395355222733
  0.4347280879700380  0.0730151780793002  0.6117121144690261
  0.4774813046871386  0.1724636902829514  0.6296804325019940
  0.0681201661168034  0.4972723468653502  0.5860619261862957
  0.1205682597595091  0.4276288639677919  0.5454057403014031
  0.4088556727711079  0.3690647783786680  0.7558602457881883
  0.3608869341198063  0.2782360575205935  0.7263480029560079
  1.1799914684307020  0.2793967776235011  0.6553494437385048
  1.1141111939961976  0.3670037176781413  0.6212494988314955
  0.6246891549401513  0.3389497737838268  0.5714287004741572
  0.7626389158325468  0.3114758478727617  0.5641205121956210
  0.2164175564180798  0.9962878659411007  0.3385856910902690
  0.1776710867020246  1.0331776761986120  0.3943156631942739
  0.6795861943217728  0.5778522683989191  0.6187082339555567
  0.6738422445129092  0.6879064048193901  0.6365737520791047
  0.3436955843904538  0.8988540491275785  0.8060954121117800
  0.3058554974352918  0.8014844196019396  0.8369254598098190
  0.0427200322514841  0.8500177998127949  0.9123369186813881
  0.1326003553012777  0.7772682904884217  0.9042260839002004
  0.3799125122888705  0.6910591447355214  0.7177833897953310
  0.3477231267417503  0.7814979266096991  0.7508308134671701
  0.8395350052624305  0.8703436973068404  0.8790454766233901
  0.3059947527459135  0.3180190596483617  0.4381934855032324
  0.3218843441590775  0.2378790459062189  0.4741920628409680
  0.0434254498955239  0.4206900880913357  0.3633139984660386
  0.0141089918319913  0.3183334260990485  0.3731362234257526
  0.7433477869103957  0.3986747343592252  0.6329630223002342
  0.8327857364152409  0.4798900996969371  0.6469482891800477
  0.3544268824125161  0.8329755560932756  0.5297473769204719
  0.4081946825712104  0.9242029898248125  0.5529283639587567
  0.8392961768135533  0.8989501714097284  0.4093828064576334
  0.8492523362128450  0.8809521650657495  0.3506489056957072
  1.0930933079208096  0.1376719395601246  0.5752600390469147
  1.0633747670443963  0.2306291515103300  0.6058215439302044
  0.2176674866325473  0.0563431648618138  0.8976422526453371
  0.2122697452223704  0.9436731792522945  0.9067578517019300
  0.8269650580592149  0.0974891287781477  0.9213233591946344
  0.0584933509727778  0.7667374383636876  0.6410253370490073
  0.2245995962288437  0.9128775979927972  0.6848418347398942
  0.2995890725560635  0.8155658951307505  0.6759725578490665
  0.9636824055453231  0.7737833003572379  0.3841771880189414
  1.1084652740450009  0.6782988937080838  0.4258885123711628
  1.1147376057853826  0.5844757228816835  0.4478512278575049
  1.1502742118539400  0.0666329349083554  0.7579414548070826
  0.1884624050948476  0.1172429667415121  0.8042609660230807
  1.1600653906830234  0.5891732641374208  0.3451121649913095
  1.2345303805329775  0.5186181847762023  0.3794489585975236
  0.4140288948098864  0.1150574511449865  0.4884266375637194
  0.4214598781796101  0.1704807848738085  0.5418342630824751
  0.5531486399619022  -0.0727660882813402  0.6054174424997275
  0.4111754943880714  0.9251494412330311  0.6282623154377448
  0.6922342682340326  0.3332444520508881  0.8714806656723312
  0.6431101724255401  0.3290175048796497  0.9282724296299233
  0.9475805361895049  0.1996116695100402  0.8954860251054948
  0.9915816966094273  0.2910856457457006  0.9155161409491860
  1.0963675991831903  -0.0362701375475719  0.5384676675523418
  0.9006240620104392  0.4453935076608128  0.9088416900329639
  0.9882679979325240  0.6206551677697658  0.6326310154121189
  0.9364939160599028  0.8755658182954219  0.8361936417615503
  1.0589983631341362  0.7441868062798790  0.7000573104430436
  1.0900099449957648  0.7791043044916112  0.3592719527242133
  0.5572358638543955  1.0432049395385496  0.4037165351748406
  0.5873147814221866  0.8908019350567115  0.8996782076712764
  0.8949997544297933  1.0825363736058133  0.6978511095487024
  0.7656425835393248  1.1541355243441838  0.3537198540240057
  0.8553731032587334  1.2105803632141126  0.3872256562828126
  0.6951979554218277  0.1770001906874975  0.4397756585895026
  0.9824977874493901  1.0216917816605420  0.4393417273759986
  1.0982329040108982  1.0435623060718009  0.4677855465085405
  0.8759163970486327  1.0256990668735269  0.8843267478661410
  0.7227975099067069  0.5725735009864373  0.3909672733260475
  0.7812953786430440  0.6257516868722920  0.4345053140570273
  0.5950811216163061  0.5417238550762861  0.3923536760742776
  0.6826724548635469  0.6834738551390908  0.4634255241699455
  0.5071611476052460  0.6071998635809112  0.4204764276948603
  0.5594362677509526  0.6414079886408820  0.4705568116227147
  0.5659382836957012  0.4655043913206609  0.3730768162965923
  0.8405052145660032  0.9795263941093152  0.4616830335339766
  -0.0286928920822751  1.2249740209289066  0.4176039342555046
  0.6591087496991861  0.8072055084963068  0.7509194584229768
  0.3936948886126617  0.5414030447492455  0.8586314723218070
  0.4176684434230828  0.0142739389759772  0.7975116748710529
  0.1131343232430308  0.6711132803416238  0.8896743437866601
  0.0653908576235151  0.8059724051050050  0.7798609685537520
  0.5957616850013252  0.1260733658258997  0.8739489871605433
  1.0436594271574136  0.2919218203076814  0.7475034228450560
  1.0054326471804351  0.2532634259183768  0.8860143529989771
  0.5762913634445948  0.2322710809722761  0.6721978008095011
  1.0770234941213210  0.3970843956173465  0.4868031348176031
  0.6023492349622438  0.8500287070629424  0.3436413187173045
  0.7426372996354397  0.9556579962784927  0.6178362464483249
  0.4366668750504375  1.0040672032410873  0.4465033436116592
  0.9627622070709083  0.6878326906230104  0.5249436934457222
  0.0301418020102081  0.4645049399895640  0.8103627117826476
  0.6632327853672104  0.4597753809293267  0.7557439204910651
  0.3892706154148451  0.1652595502925154  0.3494343383950720
  0.6607286336197260  0.8614870571791149  0.8852589516298764
  0.3874646382156511  0.2802140672073124  0.8515531289733311
  0.4900372337170451  -0.0200200715743931  0.9186972408274042
  0.1170216844469018  0.8243883596921540  0.5874965969218902
  0.3374671692864591  0.4110180880337264  0.3748521853862973
  0.2988569292379893  0.7150558251623382  0.5376574013470634
  0.2641894031875576  0.2086277948578989  0.6901723706225426
  0.7877218872957272  0.3101436066000423  0.7886543961068077
  0.7614970792318813  0.7763626603082308  0.6536555506043117
  0.9013030318287963  0.2680024100342685  0.5175311539934212
  0.3290888175190733  0.5442824732798403  0.5860680758742973
  1.1506016305697624  0.0064467219835892  0.5233259314408846
  0.7268540323177144  0.6263922543957757  0.7923091070434798
  -0.0325333853230701  0.6433514049923551  0.8056832745085546
  0.4883010940168296  0.3944054181042820  0.5517088164704975
  1.0946916810881320  -0.0380203617995070  0.7217686988711857
  0.4022523526884585  0.5818872098716610  0.6802337058689822
  0.8931267794666555  0.8969214680432893  0.5448542029023016
  0.7321928596056979  0.3540340268559417  0.3378536100402545
  0.2044854908150248  0.4389260217966536  0.8865210260134280
  0.6612051016271168  0.5967366056440512  0.8930577669727032
  0.8558341411993479  0.4739091836267658  0.8796232092389443
  0.7625416660802817  0.1467592174874566  0.7399467341529362
  0.4122572572323848  0.4802444946197388  0.7658010099394236
  0.6727297894045716  -0.0304396396740297  0.7905585153342535
  0.4366610884758064  0.7394425921943101  0.8741956199314634
  0.1949585329197136  0.1527462879276291  0.8654700788517861
  -0.0285178470351134  0.5788824452121180  0.6040515092510779
  0.4094847306475420  0.1366079931928189  0.6151501325109515
  0.1372376439287797  0.4552767246905753  0.5790440235610421
  0.4305442451943018  0.3009207635620728  0.7464284885320684
  1.0985435666970067  0.3086741410433569  0.6419888181036402
  0.6905207568614563  0.3125102210888279  0.5910234792886414
  0.2483621430069300  1.0215752675300276  0.3718213073919685
  0.6228042954072963  0.6233255169198176  0.6338815509621261
  0.2947428626556514  0.8405041398233318  0.8080538323757901
  0.1268766286031864  0.8419062652064134  0.9203467919680127
  0.3902965580594969  0.7604260843456424  0.7177942677266663
  0.9193962373650517  0.8940186868534059  0.8699279727661573
  0.2591428535791169  0.2742482771452430  0.4555979979219977
  -0.0080080876409932  0.3710072435950612  0.3537383043941563
  0.7546694479951555  0.4584792906690639  0.6534472140895047
  0.3595100737194543  0.9001115868300563  0.5229497165734550
  0.8462427026549612  0.8518295334032472  0.3835673254419837
  1.0254516232906501  0.1776288324414317  0.5871419310796464
  0.2755281745480926  0.8772453494921982  0.6599618456386186
  1.0439925384081341  0.7387992506771259  0.3826374949783869
  1.1267677175996655  0.6464421631444877  0.4591630378359315
  0.2088505326405762  0.1136781514085155  0.7698977381720373
  1.1487949602949432  0.5394092390191304  0.3706522561791962
  0.4379705035292181  0.1698842938133321  0.5052694065855894
  0.4698088814165989  -0.0464535504623243  0.6027842870603716
  0.6215156016941362  0.3141086340122931  0.8922893690891793
  1.0108509441156670  0.7334615208731581  0.6687549736738294
  0.6077501033174324  1.0194330869053956  0.3751867581041442
  0.9136133396181610  1.0544336557393224  0.6658998454140792
  0.7657646067739309  1.1961185929897138  0.3801697378570287
  0.7035959396345941  1.1588292727261411  0.4748754778613449
  1.0601032540492858  0.0514825527562348  0.4338453132302869
  0.2569062108042542  0.9985649707658075  0.9146510946504565
  0.8483513432792839  1.0908131026496377  0.8861487986368450
