combine
1.000
11.0985002518  0.0000000000000000  0.0000000000000000
0.0000000000000000  14.4173002243  0.0000000000000000
0.0000000000000000  0.0000000000000000  26.7964000702
Pt  H  C  O  
96  170  6  81  
Direct
  0.4999999886561249  0.3333300219343480  0.0018699899937576
  0.1249999521128992  0.1666699702868031  0.0018699899937576
  0.2499999943280624  0.0000000000000000  0.0018699899937576
  0.3750000365432257  0.1666699702868031  0.0018699899937576
  0.4999999886561249  0.0000000000000000  0.0018699899937576
  0.6250000308712881  0.1666699702868031  0.0018699899937576
  0.7499999829841874  0.0000000000000000  0.0018699899937576
  0.8750000251993506  0.1666699702868031  0.0018699899937576
  0.0000000000000000  0.3333300219343480  0.0018699899937576
  0.1249999521128992  0.4999999922211510  0.0018699899937576
  0.2499999943280624  0.3333300219343480  0.0018699899937576
  0.3750000365432257  0.4999999922211510  0.0018699899937576
  0.0000000000000000  0.0000000000000000  0.0018699899937576
  0.6250000308712881  0.4999999922211510  0.0018699899937576
  0.7499999829841874  0.3333300219343480  0.0018699899937576
  0.8750000251993506  0.4999999922211510  0.0018699899937576
  0.0000000000000000  0.6666699625079541  0.0018699899937576
  0.1249999521128992  0.8333300141554991  0.0018699899937576
  0.2499999943280624  0.6666699625079541  0.0018699899937576
  0.3750000365432257  0.8333300141554991  0.0018699899937576
  0.4999999886561249  0.6666699625079541  0.0018699899937576
  0.6250000308712881  0.8333300141554991  0.0018699899937576
  0.7499999829841874  0.6666699625079541  0.0018699899937576
  0.8750000251993506  0.8333300141554991  0.0018699899937576
  0.0000000000000000  0.5555599783168760  0.0864100026098289
  0.3750000365432257  0.7222199606033073  0.0864100026098289
  0.6250000308712881  0.0555599860957249  0.0864100026098289
  0.4999999886561249  0.2222199683821562  0.0864100026098289
  0.2499999943280624  0.8888900002512240  0.0864100026098289
  0.6250000308712881  0.7222199606033073  0.0864100026098289
  0.4999999886561249  0.8888900002512240  0.0864100026098289
  0.6250000308712881  0.3888900080300730  0.0864100026098289
  0.4999999886561249  0.5555599783168760  0.0864100026098289
  0.7499999829841874  0.2222199683821562  0.0864100026098289
  0.8750000251993506  0.0555599860957249  0.0864100026098289
  0.3750000365432257  0.0555599860957249  0.0864100026098289
  0.2499999943280624  0.2222199683821562  0.0864100026098289
  0.1249999521128992  0.0555599860957249  0.0864100026098289
  0.0000000000000000  0.2222199683821562  0.0864100026098289
  0.1249999521128992  0.7222199606033073  0.0864100026098289
  0.1249999521128992  0.3888900080300730  0.0864100026098289
  0.0000000000000000  0.8888900002512240  0.0864100026098289
  0.8750000251993506  0.7222199606033073  0.0864100026098289
  0.7499999829841874  0.8888900002512240  0.0864100026098289
  0.8750000251993506  0.3888900080300730  0.0864100026098289
  0.7499999829841874  0.5555599783168760  0.0864100026098289
  0.2499999943280624  0.5555599783168760  0.0864100026098289
  0.3750000365432257  0.3888900080300730  0.0864100026098289
  0.6345658251490134  0.6112261067468933  0.1750837014154560
  0.7551783903001379  0.1149541054230538  0.1715080245167312
  0.5003560508276205  0.1142917317087363  0.1716017970904134
  0.6249725493203506  0.2779240888281181  0.1702814864364706
  0.1284453818135291  0.9464663949773944  0.1728727757409328
  0.7398885069870769  0.4420080225949103  0.1702701359789761
  0.8779100854117439  0.6148387661761678  0.1688879289025417
  0.8735498005081912  0.2779898903502645  0.1702427827823497
  0.5039446316985846  0.7812094851931161  0.1712512946730963
  0.2451645027497029  0.7858042604332368  0.1745629659374274
  0.4930911045041816  0.4567120617910069  0.1707722724437531
  0.3721608064504130  0.9505354152993214  0.1715199779619388
  0.0063448824347757  0.4475332596199212  0.1762776922095993
  0.3804213349830975  0.2766287882510708  0.1712133440678906
  -0.0020908715027723  0.7814750348896915  0.1725316156568898
  0.8781635545955233  0.9424967996710875  0.1694632089759700
  0.1226346209776639  0.2840613413041999  0.1702607948063058
  -0.0022056201959386  0.1111222196233196  0.1714512415721560
  0.2586514980827637  0.1158275059976480  0.1695096153923820
  0.1264378204949279  0.6192204398749319  0.1708303637506422
  0.7474894268488680  0.7816804115104135  0.1717895067971958
  0.2564801584825243  0.4513671242852930  0.1722145979575814
  0.3776976026035719  0.6203055657623454  0.1724681290730373
  0.6259927859237749  0.9474888486664113  0.1723255791599896
  0.5024806608798819  0.6751452437741409  0.2570617965978363
  0.6241469781267550  0.5161958254816974  0.2592619531354888
  0.5042288894116470  0.3528174994668236  0.2560981495918075
  0.5022992558022297  0.0124926651313280  0.2547917219930148
  0.7468638304581419  0.6791485849477346  0.2578465642100868
  0.8780140094261452  0.8465990459314735  0.2566260669897766
  0.3748460668300905  0.8415530673107758  0.2569322950233372
  0.7640974667027308  0.0136420470157442  0.2561858575187619
  0.6332841238941349  0.1820584464195301  0.2566194978685686
  0.7527225846433709  0.3550699397916262  0.2583162318171919
  0.2422110519089297  0.3552355717936549  0.2567485362465202
  0.8679774421267090  0.5142133648090795  0.2582649289520160
  0.2510247997289684  0.6808983920272513  0.2623734612702222
  0.3772581570758567  0.1871066386446825  0.2615961683709733
  0.0091475539213989  0.3548716601168240  0.2654013793520332
  0.1299398037735872  0.8427561143674478  0.2630993606092768
  0.8816439769069735  0.1827935995296897  0.2589607798144883
  0.0082819964062345  0.0117452913697801  0.2611051856283089
  0.2553217564905151  0.0074052425515876  0.2600380324426165
  -0.0010075120823813  0.6837735383344729  0.2644317854352409
  0.1277170877182356  0.1870708648873232  0.2560629024616883
  0.1170165309758289  0.5149531805883211  0.2587187364398928
  0.3693263546518560  0.5198978897010469  0.2623791107679011
  0.6225825976513675  0.8412640159464312  0.2633392747575638
  0.7576252926548588  0.6219983415608867  0.3608373560205556
  0.8383181523279263  0.6156755452479989  0.4516215889110539
  0.6709273445114650  0.7335528235983231  0.4425789338877968
  0.5544407456766067  0.6539017333155196  0.3490502944759993
  0.4530808741554477  0.6970931410071241  0.4374990799057920
  0.4686065212330385  0.5811063225540047  0.4495693609678998
  0.6336652772485545  0.6636207412448841  0.4946091553708124
  0.7247653051046624  0.5334217397261278  0.4662085862754757
  0.7986236048120535  0.5077396580922916  0.3861476873345834
  0.4336527004195387  0.5748439940947676  0.3645335211785817
  0.8742335012180027  0.9971155714278663  0.4637214881829929
  0.9710324113973995  0.9389139554702753  0.4851485757804246
  -0.0412150756067977  1.2795565689481014  0.4516311403768974
  -0.1088836310026672  1.3278360611602986  0.4940644704182903
  0.5589325022535293  0.7957642666664407  0.7315972595214981
  0.6396416626515501  0.8601226367332644  0.7629956473532902
  0.5557095363672874  0.5558265809498378  0.8787138882877658
  0.4155248042682212  0.5177505768325932  0.8787069262070566
  0.4603300361570389  0.0230164617672801  0.7973991660455352
  0.3170228996056795  0.0461510284275367  0.8014580814601081
  0.1111151286949777  0.6654118696738028  0.8690480495884829
  0.1785109371762802  0.6372904485344518  0.9206463111265181
  0.0447946294653072  0.7803233306842111  0.7903866324586458
  0.1466628909555601  0.8466745910670437  0.8076023930866203
  0.5235721708577309  0.0270136613541257  0.3520954013592461
  0.7393190973680632  0.0682686899410661  0.8728000148836949
  0.6535015478892021  0.1524214301229685  0.8638311810190566
  1.0691143344683525  0.3096278495176263  0.7200155341334996
  1.0606102409188936  0.2730230552642262  0.7767413530240165
  0.5830801190864013  0.2745701715864906  0.6406585818552406
  0.4926533658737561  0.2175908208606590  0.6676888562168143
  1.2384067332855055  0.3235275339788153  0.5045045946912189
  1.0909491139071956  0.3511831297836366  0.5016591239787258
  0.6378102609451165  0.9044192871368949  0.3561307523622435
  0.7606756806200714  0.8533951538695502  0.3460505889562497
  0.8134054410221661  0.8399304283883672  0.6218033831092760
  0.8236621135290245  0.9562454757419309  0.6240571418358880
  0.4198679410440377  0.9191711548160827  0.4684296086047470
  0.3335375465346890  0.9352116051224596  0.4205569635688712
  1.0351013344110900  0.6577858940064106  0.4980175057746253
  0.9856865784028579  0.7459886283336513  0.5264251664046272
  0.0737432312593102  0.4048166270313880  0.7951250494014950
  0.1404558487032677  0.4532865245384249  0.8383042118512577
  0.7707155169287591  0.5197361502447186  0.7567760656496515
  0.7300210880371844  0.4856257600711743  0.6995044417046614
  0.4025139542052517  0.2119372612668441  0.3603003211553387
  0.3009008998362980  0.1228468502871863  0.3571886711470703
  0.6108933276368032  0.7800423447550167  0.8751997830253682
  0.4951089367961048  0.2889169860928135  0.8610992826592687
  0.3993282179347798  0.3198125804946861  0.8203775552316541
  0.4148218041219867  -0.0071001937815976  0.9176989471189240
  0.5524913156987599  0.0279976115583456  0.9055081311382621
  0.1778086667682820  0.8506565080630732  0.6208956884623726
  0.1731575842139857  0.7687872107302358  0.5852919231468595
  0.4546782400965914  0.3765148457025740  0.3700352341815888
  0.3463872606820459  0.3337212253990920  0.3395359487903068
  0.2367205852587067  0.7025495712524628  0.5144333079102709
  0.2683915465980996  0.6472400123548837  0.5641510376765758
  0.2863526976525108  0.1092998677272471  0.6738133377729211
  0.2804022045136482  0.1635776899148609  0.7215885506353272
  0.8394506978984830  0.2799617123459031  0.7778340851680093
  0.7734449381850308  0.3572558958104154  0.7559189083583799
  0.8533411540684503  0.7183691540350690  0.6819513011459382
  0.7422539073028306  0.7707807687371334  0.7049495699538946
  0.8968539756788907  0.2176415386086856  0.5672084879156142
  0.8004283010543906  0.2060745947214436  0.5211625179245866
  0.3268981479017026  0.5653239882015237  0.6225438706019250
  0.2410672338063045  0.4976748057591602  0.5960165592975040
  0.9248749214593408  0.0828831210357914  0.6413621591958761
  0.2476882295294052  0.0429204474952275  0.5701298315884554
  0.7538212397970727  0.5854122420350575  0.8356825560424193
  0.7501909570934736  0.6860907621406117  0.8121580500733868
  0.9458650253485773  0.6386080839519331  0.8023736440780617
  0.0531689484445699  0.5691792748803929  0.8103567944504840
  0.4436035684552526  0.4929837978764217  0.5578312081451333
  0.4724252560745434  0.4209916994909977  0.5120619571939982
  0.9964224417714852  0.0027804992180460  0.7151168269991044
  1.0598526445401724  -0.0714944056143525  0.7505096524314543
  0.4038087718809705  0.6000027199558440  0.7084538367305511
  0.4773738033605691  0.6170256178966348  0.6578464664365056
  0.6601592650513038  0.1155742451136272  0.4813927714247521
  1.0464203108988932  0.8608480451826475  0.5563081630497816
  0.9206840415796510  0.8803137663949299  0.5660651375730407
  0.7413496112112599  0.2635474311754844  0.3602972340503625
  0.7140989852853876  0.3754645633775602  0.3621032399829960
  0.3252062996002211  0.3899007546867486  0.8788377357669533
  0.2472817445091189  0.4498108243643007  0.9194615179484482
  0.7781496980368432  0.4826045617870057  0.8952895129252689
  0.7343573412162744  0.5800126261091305  0.9204353442434595
  0.9600661839127210  0.4208725306193456  0.8557781221665737
  0.6625529762732946  0.1449699253177256  0.6921571940675079
  0.7603844968811266  0.1637876867972798  0.7339089435215026
  0.5448920288684225  0.5047888470085149  0.7522124549004600
  0.4602100351145752  0.5377412199915826  0.7964326970820865
  0.6447433806508642  0.0236606300689394  0.7555094151700691
  0.6499599373645165  0.0139552415618624  0.8145561490020360
  0.4286815677125720  0.7772091810166939  0.9124205011549342
  0.4523757940434991  0.6886778692355402  0.8798689853089667
  0.1507063982837436  0.2153615865726867  0.8963676180597018
  0.2712664050903382  0.1964700016183182  0.8677462905011198
  0.9582310428992586  0.6143255112057588  0.5767705721556144
  0.4897431242764951  0.0394798309353814  0.5981881779495450
  0.5082685949378716  0.1440594472187903  0.5994707845911075
  0.0375516915298900  0.4754456484887976  0.6063049181807032
  0.1170252293853266  0.4055866984752279  0.5709174948396647
  0.3740073548970535  0.4161196349777258  0.7564081613985516
  0.2805948078881135  0.3292703532037663  0.7504311047200272
  1.1688808780173712  0.2539611298465398  0.6583273910743763
  1.0806672735493967  0.3399023198768084  0.6382224432310603
  0.6098833553481435  0.3671505906964634  0.5646873280201425
  0.7234020797808133  0.2943225123347271  0.5778035069202652
  0.1358570043331266  1.0657648574454954  0.3520791621144647
  0.1663420787146970  1.1185392341986120  0.4019904338224639
  0.6406222274263480  0.5784495854531541  0.6201440819574975
  0.6429456134077843  0.6809299971469971  0.6415884230777452
  0.3449402689952732  0.9037562562398974  0.8033729155746003
  0.3619010897754927  0.8037074417351668  0.8189122613639279
  0.0486391514846747  0.8372667047575537  0.9097407406157618
  0.1648446762348164  0.7764073458034328  0.9069751549211963
  0.3599894339104077  0.7310274996657163  0.6867654678870693
  0.3445348243317684  0.8097216843708201  0.7249735711142861
  0.8365702649593735  0.8482990185004495  0.8747428433406373
  0.4013105746767578  0.3236444628541091  0.4479630972165287
  0.4323496626421908  0.2426542161481456  0.4848164055345452
  0.0331714576607133  0.3891512352460848  0.3667754308135557
  -0.0939629743424898  0.3352457435653264  0.3546197573706055
  0.7106044132693434  0.4257453724418104  0.6115953229152427
  0.8213372745855092  0.5098486445271271  0.6198608064958641
  0.3768480699833001  0.8172262828058058  0.5364979938625278
  0.4320533924232063  0.9194854528489671  0.5450248457755241
  0.9335115275615440  0.9294442390687339  0.4032859147344169
  0.9535217321352639  0.9457644699052548  0.3428263153980980
  1.0539005616549837  0.1159419429570185  0.5875556975173377
  1.0338441908526406  0.2115602264395581  0.6210272997045828
  0.2114751038474180  0.0498082250926328  0.8966382775281750
  0.2173569318258796  0.9381675181531234  0.9029756943324888
  0.9202893379439694  0.0540579353051407  0.9291332532718889
  0.0786497893225195  0.7417273202146423  0.6597050735355758
  0.1755552732887491  0.9656435607156783  0.6850293307612567
  0.2915689747878481  0.9177198216902919  0.6689090807587058
  1.0866383904747896  0.8602723096655353  0.3833464944167528
  1.1427414220532242  0.7183281133276691  0.4278050946085326
  1.1781531576015709  0.6123780089228644  0.4318682067883317
  1.1324762027159068  0.0781696681671702  0.7624244203690722
  0.1657282124944484  0.1490254248835494  0.8067996907966242
  1.1176308328044831  0.5581770226742104  0.3487516222708138
  1.2224672276958826  0.4831064885546680  0.3582281432525408
  0.4498250885735949  0.0826346338957400  0.4613173101429865
  0.4835709615837123  0.1138248790181989  0.5165743666737502
  0.6255855519284189  -0.0836984613503524  0.5879922318342369
  0.5221829293611153  0.8730541152486223  0.6217856740663166
  0.6962613625878622  0.2952175747458052  0.8303954026476035
  0.7122383938602849  0.3006652129705835  0.8865954630906017
  0.9404221973961968  0.1582580720663865  0.8602415744731023
  0.9182669278803791  0.2671593004984407  0.8643556153036317
  1.1686964326280342  -0.0284965046026811  0.5399766497736128
  0.9264498880587392  0.3898666788270275  0.9141492092567183
  0.9933139499827496  0.6278863304131215  0.6330230595102991
  0.9592230377138927  0.8644720509595361  0.8448550785997810
  1.0784952252407896  0.6696695969767646  0.7045451247011141
  1.2128755594447838  0.8324445518080839  0.3590247271572474
  0.5276086961434545  0.9870529530636126  0.4033674794705110
  0.7064498719390838  0.7651465666371391  0.9147035444794006
  0.8351492235265510  1.0654971306353473  0.6844839288280974
  0.6799769562356897  1.1104542572343719  0.3694535824164574
  0.8013192671557245  1.1481932372677448  0.3452790977990106
  0.7715286193926291  0.1358857185617857  0.4452246981290482
  1.0362456789001520  1.0841670138390225  0.4651310593754310
  1.1140222780365987  1.1596618424523211  0.4846164230075654
  0.9003720390671101  0.9772088054914626  0.8895121797837114
  0.7356538449756599  0.5651508022886862  0.3878978441831578
  0.7440876177175958  0.5940870039429218  0.4446244228473737
  0.6140110877769074  0.5285366822324029  0.3773282378458135
  0.6446526017548745  0.6631179713582044  0.4542436424785455
  0.5229188536404948  0.5994480895621089  0.3761272397223458
  0.5201307134595744  0.6404148988544970  0.4315902923378648
  0.5965600050264621  0.4433636397698276  0.3763020977662519
  0.9570681678704541  0.9798732726664788  0.4543797377783039
  -0.0562764970968670  1.3418433522243787  0.4640208638371473
  0.6338444333646863  0.7938960990358185  0.7518778696846655
  0.4732641867668673  0.5627920243225673  0.8638418995147966
  0.3845291418728262  0.0102694916035980  0.8147097453392013
  0.1832748692121808  0.6788093899581096  0.8890748844877275
  0.0625547691173320  0.8459839238932260  0.8013776502680692
  0.6546995355900939  0.0850596560743773  0.8661071509941364
  1.0587671247197763  0.3286231280537849  0.7555201256050249
  0.9575264935977681  0.2169176614238012  0.8416898651502952
  0.5766770516729934  0.2160618973481384  0.6582058637128102
  1.1641452638345922  0.3394048177170135  0.5233897800920287
  0.6716419481263736  0.8462881549650466  0.3430702423242103
  0.7977417443824506  0.8989364824113076  0.6016695868908806
  0.4055540863523432  0.9599019832419374  0.4397544498339045
  0.9663112816941766  0.6809776454299150  0.5188730792671817
  0.0658600142826912  0.4502819516692972  0.8209617613734862
  0.7378392908872430  0.4700306554883456  0.7357318366068436
  0.3890399354993688  0.1464956390406684  0.3451803246095871
  0.6991848441631983  0.7975340257893724  0.8818462300642770
  0.4043789737601814  0.2985923486246201  0.8555497069136305
  0.5026505489690131  -0.0192282107389811  0.9240075978353312
  0.1238118362953714  0.8015734113396464  0.6106916597016556
  0.3864450883806935  0.3352244796812960  0.3727490835572321
  0.2651343679541529  0.7117594699043753  0.5490876414165353
  0.3051904927290204  0.1709802162852363  0.6868286476498571
  0.7562412606909448  0.2927253885014320  0.7650531588195902
  0.7736980427069273  0.7439386100750189  0.6742444872844127
  0.8280906180553032  0.2528074580535390  0.5466475481081542
  0.3110891274377400  0.5375770960250156  0.5895995493502900
  1.1674933013943494  0.0328672701565391  0.5541301124889935
  0.7848852981002732  0.6231655106104455  0.8074760254330874
  0.0331511345994994  0.6344450533937682  0.7986753888967543
  0.5065937066846605  0.4574516448290316  0.5383605697185849
  1.0755304644214467  -0.0148166329393596  0.7309556108054408
  0.3848285522908654  0.6121135264441286  0.6741208376116462
  0.9774771142290636  0.8715178403042559  0.5352627699774802
  0.7654209719301707  0.3322812449327763  0.3470967157802470
  0.2832839978167400  0.4493693193806373  0.8829694572933506
  0.7227831877914306  0.5377718278719162  0.8907845041672362
  0.8978615505895807  0.3869021323422452  0.8794149770814389
  0.7351532283090882  0.1194982079374468  0.7097463214004794
  0.4596719014330418  0.5124864814181076  0.7614035998921297
  0.6162345441665217  -0.0173802227117155  0.7825198859647977
  0.4591043900344655  0.7562298582936918  0.8812027035959894
  0.1917082936998560  0.1664088749956295  0.8749870385938375
  -0.0413397953048285  0.5817221500849480  0.6096123706768526
  0.4650679600933358  0.0970483375966414  0.5805910555762157
  0.1014300868910127  0.4298895734135912  0.6080075760855139
  0.3619746342888487  0.3476025459366697  0.7596600069103263
  1.0824070268009109  0.2787379245614008  0.6594546560137288
  0.6517404108205400  0.3319758310112033  0.5934519585257598
  0.2036164530007998  1.0789314285196037  0.3751028166980558
  0.5879803813800549  0.6331496038984098  0.6270724819669624
  0.2978174240221266  0.8412916282451144  0.8051576024607012
  0.1297787662856879  0.8388260348367115  0.9200620515931858
  0.3878577047202261  0.7979160289740406  0.6941403635514974
  0.9191723678922734  0.8692623962478719  0.8780104268731497
  0.3919814897327621  0.3056479480723274  0.4828224852706282
  -0.0007209589330506  0.3358869062349099  0.3465850592195119
  0.7409733887933415  0.4851738932168642  0.6286503277331562
  0.3829093762295282  0.8805859968776790  0.5209289934928119
  0.9216158888531889  0.9006117249063826  0.3683964073210794
  0.9926337209131710  0.1649087662052509  0.5974124031721294
  0.2268928159002017  0.9555538166209538  0.6561881555819286
  1.1740830668077562  0.8446309538089155  0.3901238803127772
  1.1659223185223913  0.6710033617594103  0.4503867617695977
  0.1982812586901634  0.1234412395325151  0.7766563900590646
  1.1522211276092011  0.5166626809466793  0.3749928680298659
  0.4871331608181169  0.1349559744563389  0.4812921104481682
  0.5449026196687408  -0.0728070625754736  0.6019825432125520
  0.6532144208064701  0.2754593009033924  0.8628084039695948
  1.0331141510890531  0.7095393414474503  0.6835069896037456
  0.5838052325357338  1.0071215322149529  0.3769521942588541
  0.8950875984968186  1.0291061489440805  0.6609199639057268
  0.7495770299280538  1.1540305583951880  0.3725728376664547
  0.7523672645721424  1.1156258998748110  0.4786168236927758
  1.0652538637806079  0.1483835778001126  0.4544834779744764
  0.2509660834623363  0.9970825089201441  0.9136853511613235
  0.8917194438316028  1.0463902559837601  0.8943979087792863
