combine
1.000
11.0985002518  0.0000000000000000  0.0000000000000000
0.0000000000000000  14.4173002243  0.0000000000000000
0.0000000000000000  0.0000000000000000  26.7964000702
Pt  H  C  O  
96  170  6  81  
Direct
  0.4999999886561249  0.3333300219343480  0.0018699899937576
  0.1249999521128992  0.1666699702868031  0.0018699899937576
  0.2499999943280624  0.0000000000000000  0.0018699899937576
  0.3750000365432257  0.1666699702868031  0.0018699899937576
  0.4999999886561249  0.0000000000000000  0.0018699899937576
  0.6250000308712881  0.1666699702868031  0.0018699899937576
  0.7499999829841874  0.0000000000000000  0.0018699899937576
  0.8750000251993506  0.1666699702868031  0.0018699899937576
  0.0000000000000000  0.3333300219343480  0.0018699899937576
  0.1249999521128992  0.4999999922211510  0.0018699899937576
  0.2499999943280624  0.3333300219343480  0.0018699899937576
  0.3750000365432257  0.4999999922211510  0.0018699899937576
  0.0000000000000000  0.0000000000000000  0.0018699899937576
  0.6250000308712881  0.4999999922211510  0.0018699899937576
  0.7499999829841874  0.3333300219343480  0.0018699899937576
  0.8750000251993506  0.4999999922211510  0.0018699899937576
  0.0000000000000000  0.6666699625079541  0.0018699899937576
  0.1249999521128992  0.8333300141554991  0.0018699899937576
  0.2499999943280624  0.6666699625079541  0.0018699899937576
  0.3750000365432257  0.8333300141554991  0.0018699899937576
  0.4999999886561249  0.6666699625079541  0.0018699899937576
  0.6250000308712881  0.8333300141554991  0.0018699899937576
  0.7499999829841874  0.6666699625079541  0.0018699899937576
  0.8750000251993506  0.8333300141554991  0.0018699899937576
  0.0000000000000000  0.5555599783168760  0.0864100026098289
  0.3750000365432257  0.7222199606033073  0.0864100026098289
  0.6250000308712881  0.0555599860957249  0.0864100026098289
  0.4999999886561249  0.2222199683821562  0.0864100026098289
  0.2499999943280624  0.8888900002512240  0.0864100026098289
  0.6250000308712881  0.7222199606033073  0.0864100026098289
  0.4999999886561249  0.8888900002512240  0.0864100026098289
  0.6250000308712881  0.3888900080300730  0.0864100026098289
  0.4999999886561249  0.5555599783168760  0.0864100026098289
  0.7499999829841874  0.2222199683821562  0.0864100026098289
  0.8750000251993506  0.0555599860957249  0.0864100026098289
  0.3750000365432257  0.0555599860957249  0.0864100026098289
  0.2499999943280624  0.2222199683821562  0.0864100026098289
  0.1249999521128992  0.0555599860957249  0.0864100026098289
  0.0000000000000000  0.2222199683821562  0.0864100026098289
  0.1249999521128992  0.7222199606033073  0.0864100026098289
  0.1249999521128992  0.3888900080300730  0.0864100026098289
  0.0000000000000000  0.8888900002512240  0.0864100026098289
  0.8750000251993506  0.7222199606033073  0.0864100026098289
  0.7499999829841874  0.8888900002512240  0.0864100026098289
  0.8750000251993506  0.3888900080300730  0.0864100026098289
  0.7499999829841874  0.5555599783168760  0.0864100026098289
  0.2499999943280624  0.5555599783168760  0.0864100026098289
  0.3750000365432257  0.3888900080300730  0.0864100026098289
  0.6344759595475923  0.6213670577380903  0.1696897301871811
  0.7506305291608083  0.1128018764746894  0.1710247362591267
  0.5068436720076374  0.1198848211322394  0.1726760458075764
  0.6316580308013252  0.2830921811297832  0.1726906074501470
  0.1303956671682093  0.9541994932042097  0.1714806121815640
  0.7624379682405837  0.4495720031670978  0.1728983293749361
  0.8907715743031686  0.6213019725844623  0.1699790993778070
  0.8748763259004497  0.2842192559528914  0.1747449837117263
  0.5099491894936067  0.7896065742886148  0.1734500484700858
  0.2604414348444246  0.7854602094581701  0.1727427631910801
  0.5019357229096351  0.4452288755894074  0.1693605283624252
  0.3772889652204026  0.9513011882892874  0.1726470038467921
  0.0046627742961583  0.4497998170121937  0.1713277566491317
  0.3822452235663065  0.2851516241002470  0.1702556852169713
  0.0097999871363124  0.7882794644481919  0.1689721217864398
  0.8812456450693648  0.9527840128034061  0.1719019867083817
  0.1272439345911589  0.2842501397447992  0.1760944860331301
  0.0061217050374875  0.1206956198614146  0.1734192147051832
  0.2488341735769297  0.1230944663626276  0.1726931798740479
  0.1393001742599645  0.6206458050112813  0.1712617017090888
  0.7629294592417318  0.7878410137881060  0.1697278485425320
  0.2530265958992569  0.4538470499609571  0.1708796569055637
  0.3841186594205452  0.6201030334813654  0.1699372110944160
  0.6292125265364045  0.9486224758605273  0.1708250523282262
  0.5151149842045363  0.6880844102406599  0.2567001194443900
  0.6425141207744238  0.5191929947594218  0.2551818200312816
  0.5048738612310457  0.3527696424416339  0.2570530546250569
  0.5129118575707342  0.0201604496665819  0.2570694992892225
  0.7647562340347236  0.6837497369295870  0.2534083635641628
  0.8904317528665391  0.8519989665399647  0.2576578247791651
  0.3927280016138297  0.8558747965796151  0.2619753117287894
  0.7693922542566138  0.0183260943095765  0.2598390179710446
  0.6341512340875540  0.1813646065851386  0.2598438037258350
  0.7541454355098598  0.3462774043981868  0.2646589300622824
  0.2621450256153429  0.3546405948793543  0.2579623061639267
  0.9038968949947075  0.5216622812587066  0.2564609731044633
  0.2708781020311658  0.6958051274601285  0.2592457105730975
  0.3860391322246561  0.1860956164995355  0.2670668065841647
  0.0092386731967115  0.3527668736985698  0.2603628302728176
  0.1453924783970963  0.8576690606649533  0.2588032754598383
  0.8804271011856066  0.1828899187488497  0.2587460791761589
  0.0133387892094691  0.0167199086479247  0.2582666142791451
  0.2657975867164182  0.0234910724845118  0.2602985965102416
  0.0189190587409272  0.6899057698843845  0.2620783082579041
  0.1383200719260266  0.1887345785110134  0.2609830074442460
  0.1491052198545124  0.5220214931097070  0.2578355173008295
  0.3967486509707339  0.5199532325660484  0.2580908112314350
  0.6470215715078586  0.8549598631597111  0.2622914763732120
  0.6805910278800900  0.6498949724794905  0.3789028199460010
  0.7015900144469643  0.6909198739588323  0.4622483426635730
  0.5360786900856318  0.7692144423550318  0.4200192744105419
  0.4515727141770501  0.6311893221216341  0.3450875887535210
  0.3378680642181215  0.7065310064939411  0.4079509155655926
  0.3660160776264496  0.6233735887425041  0.4534773547478724
  0.4827303964723598  0.7401691594528834  0.4808402003494879
  0.6108852729268900  0.5904744945625443  0.4833945834912787
  0.7370498175619098  0.5456833323023887  0.4064770574691119
  0.3695266234313823  0.5361183260214228  0.3721436307517247
  0.7791033508691964  1.0788730866603848  0.4551588267061191
  0.8427629350085409  1.0053839007159726  0.4878906692932661
  -0.0616483494145106  1.2972586278654734  0.4645219047032647
  -0.1698248713914580  1.3212317743646669  0.5020318940214865
  0.5234584090636727  0.8416996609355958  0.8312555344317095
  0.5957432339137588  0.9337156574856302  0.8118045986368062
  0.4816518406739709  0.5641898169457683  0.8609944649153688
  0.3581881797998122  0.5180445767586581  0.8611330152053434
  0.3913809599000112  0.0744518147850470  0.7937611120664705
  0.2597490063968284  0.0798408080009230  0.7718134880737223
  0.1125817853450382  0.6703010141671105  0.8531931477327491
  0.0836382476496724  0.6247320747138920  0.9005601265461285
  0.0537443224730531  0.7213490407358806  0.7830507687834871
  0.1325624355021650  0.8183097512331104  0.7826217484871085
  0.4669396087331267  0.0083842449223789  0.3464416243816258
  0.7407012213534652  0.0742938804516714  0.8848696713768324
  0.6643650285455588  0.1664181083470843  0.8797672756168864
  0.9533837707382048  0.2961349487960250  0.7249729989777319
  0.9623912982808371  0.2439940985394022  0.7773018346432137
  0.5015397869542985  0.3409523374504512  0.6465282573223908
  0.4316709312794755  0.3236808023970089  0.7000051264856340
  1.1574866241424397  0.4190257893234181  0.4983407893790389
  1.0182372990501281  0.4339472502039655  0.4889097673000304
  0.5799865476559343  0.8932583065374351  0.3542915724511028
  0.7259755610667525  0.9014682537646210  0.3525384649076667
  0.6232882868996720  0.8647165007140094  0.6123018590488427
  0.6886949277457869  0.9623674053422617  0.6287900726052357
  0.2709256462838151  0.9823841589029314  0.4755666410717567
  0.2552824881127962  1.0431056730546910  0.4248789404574308
  0.9441861006220607  0.6904946772087731  0.5085383195690694
  0.8671112306583225  0.7753539208303992  0.5202975061155646
  -0.0105683923898616  0.4113992433897574  0.8000138447977724
  0.1165626488849416  0.4208250217522662  0.8263661292072479
  0.6636904556726353  0.5341869399666976  0.7556572402917131
  0.6240879072176119  0.5115901395441818  0.6998256080284009
  0.3758332079528944  0.2484993274303511  0.3718043930602369
  0.3018345962335494  0.1495686121154280  0.3607184180030738
  0.6827043170784388  0.8172385870858889  0.8660832925206727
  0.4595892813781519  0.2465969618158949  0.8509945024055540
  0.3607083542256734  0.2643496284260145  0.8120914045316230
  0.4247704684905884  -0.0152614432297905  0.9107162107099357
  0.5618508935825512  0.0362430853052011  0.9047934521086227
  0.0419851532304490  0.9122783381823205  0.6342197456441079
  0.0453090338235965  0.8371742741166385  0.5960018019943228
  0.4279594271333799  0.4025412029374438  0.3678277273618282
  0.3127081279416221  0.3694753332681350  0.3388884193029673
  0.1048330485293543  0.7252798569510053  0.5282331250435892
  0.1591118944393949  0.7068132110146697  0.5766787223737947
  0.1777898877985769  0.1412277696255617  0.6842948015129832
  0.1039780066602097  0.1532160301536102  0.7362708241933166
  0.7884880900264629  0.3035347664484440  0.7666388370035510
  0.6590254718437073  0.3651923598376502  0.7531547134252563
  0.7777965608281142  0.8023899779933780  0.7209130483457443
  0.6667591408037166  0.8202773299030882  0.7596805829988514
  0.7849961217045525  0.2301022991328511  0.5710729489748876
  0.6791303311073552  0.2253162867015015  0.5328173774945970
  0.2684114161385778  0.6274127759269290  0.6323120478128291
  0.1687859913051032  0.5579722641442448  0.6135264066303849
  0.8287410885545788  0.0721402041449476  0.6539293465537968
  0.1543005146954210  0.1435234771980665  0.5803950450454638
  0.7271300995727928  0.6073438829373576  0.8215774370895068
  0.7448016409838218  0.6677430390312498  0.7732178607768248
  0.9245115502732794  0.6203079834341325  0.7907054819562507
  0.0480625205205980  0.5599312083127513  0.7937058927834278
  0.3473850083820745  0.5233708009410867  0.5537773495814673
  0.3607117812652856  0.4334353399929566  0.5188639505260315
  0.8673463249900613  -0.0112753595660031  0.7158879072653292
  0.9352735461727369  -0.0954035887302737  0.7479827129648614
  0.3902859500496461  0.6410144234510252  0.7022506818080788
  0.4579663913487464  0.7038119904583362  0.6645347569169613
  0.5371453592870026  0.1201391476526665  0.4868707394770071
  0.9023190628459755  0.9258223214914064  0.5598313082205013
  0.7607074476959826  0.9183248595104307  0.5518274234061932
  0.7299626056219682  0.2816145412409992  0.3632793658699597
  0.6854132244008604  0.3904573515582263  0.3562751571065324
  0.2965309370665865  0.3535825037483748  0.8730336188000268
  0.2326333539688175  0.4198948869217938  0.9114883831004730
  0.7189528288478333  0.5528322235023015  0.8994812981466320
  0.6853455401387568  0.6615808815178575  0.8943914844909658
  0.8719954963672147  0.4313725227846506  0.8695349257347497
  0.5648493989071425  0.2078536793559418  0.6981981339615206
  0.6589489775714418  0.2174969497142623  0.7377300192791327
  0.4698483257189882  0.5041620688212389  0.7417801016713826
  0.3853393212030056  0.5386286950944756  0.7875292359725727
  0.5767498157475691  0.0913240535686997  0.7631418433344569
  0.5970618535351466  0.0851045922198359  0.8216887351329824
  0.3758239835173691  0.7881822942860807  0.8975535319592087
  0.3720815630409390  0.6924030918336989  0.8643840652856443
  0.1219594862720729  0.1802938771795054  0.8830903903176193
  0.2578567702096378  0.1732925514368488  0.8688136936830797
  0.8841557158417435  0.6216359860700026  0.5857849175291419
  0.3143672797983798  0.1134514232798683  0.6259901269407641
  0.3381729567732621  0.2175503223907016  0.6338666895143585
  -0.0219005009582785  0.5057357345316720  0.6192834062943643
  0.0490661785326969  0.4719161521123377  0.5722579072049788
  0.3215674397647717  0.4027078388167432  0.7463982687638206
  0.2547299045509762  0.3023338429169483  0.7332224459303407
  1.0684363630821934  0.2568927426202519  0.6611972987671458
  0.9998080082126721  0.3353040339724709  0.6318820502545820
  0.5017136096561258  0.4229044605399436  0.5746530857786626
  0.6336025813090841  0.3636839276026507  0.5800087865677248
  0.1015388010841582  1.0993204245540031  0.3475362391441744
  0.1108290568178802  1.1373475041993268  0.4017470951134239
  0.6077023803649628  0.6786142290641679  0.6186278378913707
  0.6278481975679437  0.7452525977845951  0.6669166206274892
  0.2808403149780969  0.9340809330308482  0.7943585471569325
  0.2952795987159163  0.8302972796754122  0.8136331377716020
  0.0423417681072526  0.8586802868427522  0.8943284297300438
  0.1443020086916929  0.7773032150923466  0.9089129843558951
  0.3335155432644759  0.8034755354178964  0.6848083651470515
  0.3307984528544352  0.8770892628834025  0.7261362528968531
  0.8611609821471068  0.8333886868672302  0.8720800301786801
  0.3304371688422688  0.3352223655753590  0.4375271701379884
  0.3247005529702573  0.2662270072610879  0.4856291936084262
  0.0466755529077890  0.4112330319449849  0.3539157121201026
  -0.0677936075081831  0.3440480281904398  0.3538489547760074
  0.6274633864940955  0.4916914517290760  0.6246245075439746
  0.7463111358813223  0.5605218943890283  0.6304703718947686
  0.1898247596523967  0.8717428925990351  0.5449794214649148
  0.2977442431705185  0.9476479633386670  0.5524847821168354
  0.8588370180605340  0.9846969456439469  0.4057549706794943
  0.8971116462861906  0.9632487922248477  0.3438675823677992
  0.9439947281166037  0.1173003358874085  0.5871460312871262
  0.9007908873344015  0.2001554111106200  0.6255108633954238
  0.2205063577759606  0.0580227895712435  0.9002515467302452
  0.2111506762294238  0.9391193667854262  0.9097059656871311
  0.8865056174958674  0.0491663434881697  0.9286501364626876
  -0.0539461523914366  0.8190243862507426  0.6514874465027235
  0.0640601411154351  0.9684168648973176  0.7027979874148609
  0.1945269272170221  0.9237240336476802  0.6857504778724125
  1.0297912971841736  0.8206813583071152  0.3891889538997378
  1.0795699744978402  0.6975800850528731  0.4401619366407664
  1.0916720053806359  0.5987927520819284  0.4721134045602259
  1.0079349694014483  0.0464483771567235  0.7719562321098608
  0.0862458169377216  0.0916518567861173  0.8169009131022658
  1.1070179149572363  0.5422931000370151  0.3461627889828250
  1.1407167256176534  0.5037493568427528  0.4021098616557406
  0.3264014456108587  0.1188946152422394  0.4906194662439176
  0.3322817815138485  0.1803539776412090  0.5435180507883534
  0.4772938765164123  -0.0088125534478262  0.5946545070962985
  0.3839181585105562  0.9565664085676344  0.6315071535716811
  0.6683025577619872  0.3126122952620159  0.8413720486198027
  0.6646296402979012  0.3153695767766921  0.9009569076798684
  0.9422410850694862  0.1862061992768375  0.8813787821583200
  0.9799250733662086  0.2746867495014852  0.9153678169545603
  1.1483468599942568  0.0539329247711322  0.5487036715633817
  0.8378881085209509  0.4451998067905699  0.9222030129293991
  0.8903694658021326  0.6647578387627932  0.6422231301300151
  0.9673541536351961  0.8560938251668589  0.8318559347115178
  0.9754152989944972  0.7741688560724911  0.7045413467794628
  1.1103216841574086  0.7614567778644576  0.3499057467845165
  0.4125885258918061  0.9744156923375779  0.3971715948305949
  0.7015096415695699  0.8214155843574376  0.9248430884960672
  0.7246560327820525  1.0839297392698051  0.6968693649773765
  0.5610880237706027  1.1752037044246710  0.3578220312161668
  0.6907657766603754  1.1448667848145200  0.3404783228492791
  0.6203343907104383  0.1323483924877928  0.4413013492566407
  0.9730700636014739  1.1215903281978796  0.4508479741028821
  1.0887118085022629  1.1616065390920389  0.4806057880633769
  0.9099507622088027  0.9962127970389372  0.8791874218246124
  0.6546382318297150  0.5937204640278345  0.4058056599249318
  0.6232275880858938  0.6458445954191878  0.4540404773785419
  0.5531443866665083  0.5356696482801424  0.3866236692338904
  0.5095588400047829  0.7095481408549694  0.4442137645846529
  0.4362211803540574  0.5898471126838793  0.3789896018642403
  0.4011930670252363  0.6577200552026657  0.4216709676038086
  0.5671411816546245  0.4557919585821107  0.3710399515029256
  0.8484614105110976  1.0349867646891213  0.4549346296951676
  -0.1113983561697431  1.3488859459014435  0.4789018591930666
  0.6022213202829816  0.8672169938118253  0.8218770248505110
  0.3979517961071980  0.5774674966792701  0.8502633600338669
  0.3073519315500999  0.0458149080496151  0.7962731837299646
  0.1442415397738415  0.6709848629076246  0.8876696743699000
  0.0487125312100000  0.7884588473187546  0.7778187492348646
  0.6543793151171138  0.1020351148005191  0.8851597050559697
  0.9325889647496598  0.3015211853515428  0.7602541030336225
  0.9858276003756011  0.2465128093545377  0.8810275082119937
  0.4734197728605578  0.2913380472940756  0.6730479302015209
  1.0934073899968482  0.4665306567011281  0.5002321047970513
  0.6541900224692483  0.8577483411739402  0.3413440918346362
  0.6246285046734732  0.9340190490105309  0.6067630756446848
  0.3151185094790430  1.0254441033891843  0.4527847779371300
  0.8820976885964592  0.7127297724355263  0.5308152572747372
  0.0629926127799667  0.4439427016864220  0.8008999168163196
  0.6080030324462617  0.4933896903256985  0.7352383616824002
  0.3825575200046868  0.1810887848197503  0.3561352502126892
  0.7338220897890343  0.7873734035146766  0.8944276230057463
  0.3719746067970260  0.2538149570564048  0.8488236431092452
  0.5094065720801392  -0.0212436531760488  0.9208782969784876
  -0.0108122216945968  0.8840536640152291  0.6086248202360964
  0.3491517677869608  0.3688550829951381  0.3728720930693817
  0.1254517291986534  0.7614659608944244  0.5584557207272771
  0.1492027300383613  0.1860854343365982  0.7084090264128646
  0.6929982537462755  0.3051152742859373  0.7688059294393956
  0.7051717906597957  0.7753036476246865  0.7365475603847665
  0.7307930417972078  0.2699810932728903  0.5493216421175091
  0.2318449258477675  0.6044628613553841  0.6029304428943546
  1.1048172511066374  0.1109504230413337  0.5548610170936676
  0.7605009610042670  0.6078177225115996  0.7871868820304025
  0.0088156243889017  0.6200786015354033  0.8024082161174987
  0.4110587534797860  0.4792840464717103  0.5397689565429766
  0.9371355178564019  -0.0297288544895242  0.7382579198352873
  0.3801159171587883  0.6860496135628079  0.6751979112866320
  0.8376491800315300  0.9275131037613709  0.5329367536231673
  0.7567338474978075  0.3432691023634620  0.3468085236320566
  0.2551853175964623  0.4138924795671809  0.8763826538370056
  0.6606081748847917  0.5982824924157254  0.8810230362008398
  0.7998428887777231  0.4409876136229723  0.8896415903683763
  0.6177164967841587  0.1656961410551460  0.7184437383180297
  0.3852776169741042  0.5191056834819693  0.7520629207432782
  0.5441847184911733  0.0627882700725234  0.7950813198371905
  0.3886570853301027  0.7622265387369749  0.8629669463815931
  0.1835950398676189  0.1370210269444476  0.8721726628828306
  -0.1129348935408383  0.6050907318484147  0.6223079509304975
  0.2838252538120287  0.1751375599950508  0.6156819553066505
  0.0458224687896475  0.4651164769876727  0.6075833146597174
  0.3181602639624495  0.3352820275152935  0.7511717293542320
  0.9852490053173221  0.2844248116778811  0.6554442432038563
  0.5651401492091463  0.3980855893273638  0.5982199773366930
  0.1577485321871352  1.0980481743188943  0.3769453769998371
  0.5946687706773350  0.7397664425426667  0.6320653729802888
  0.2651153794966840  0.8680738224626693  0.7852191543482563
  0.1283430361655380  0.8477751442464286  0.9078596482500728
  0.3266451671082350  0.8709493482653521  0.6882370019960056
  0.9198378108559569  0.8842514905261312  0.8615088838732843
  0.3044854600919549  0.3319280791374620  0.4720529962667328
  0.0172040635912976  0.3415068459420290  0.3453221488915819
  0.6539165896872372  0.5517629453808668  0.6416547904179604
  0.2270189135141359  0.9274749668708679  0.5308902440675428
  0.8485943025655678  0.9470430926580036  0.3729347427124532
  0.8748597208911404  0.1505916812386706  0.6009110674686169
  0.1281198744640641  0.9718773245203967  0.6766118168896513
  1.0983049552774529  0.7802148783820689  0.3847806766464300
  1.0675425490194879  0.6651440313240478  0.4724049598840580
  0.0463314447478256  0.1053398403773435  0.7830053258435098
  1.0802900939571072  0.5028106390322442  0.3755037556216371
  0.3662159810953567  0.1754410207908956  0.5089366965029871
  0.3891589998386956  -0.0036021207224684  0.6027466865171136
  0.6307444292632836  0.2850310362042503  0.8716781636864726
  0.9106689353960951  0.7785542687861303  0.6791953008919291
  0.4872003688987653  0.9762488850566593  0.3771585969840526
  0.7778714526586445  1.0397467079331646  0.6781452729207730
  0.6452170281600533  1.1809941857145934  0.3694073116787183
  0.6120565432611760  1.1524575023550723  0.4762826167755728
  1.0302795124994926  0.1777146942242024  0.4541542189592025
  0.2574140559429779  0.9995150099469932  0.9165045039020683
  0.9005903527351758  1.0578742268121502  0.8930132560310515
