combine
1.000
11.0985002518  0.0000000000000000  0.0000000000000000
0.0000000000000000  14.4173002243  0.0000000000000000
0.0000000000000000  0.0000000000000000  26.7964000702
Pt  H  C  O  
96  170  6  81  
Direct
  0.4999999886561249  0.3333300219343480  0.0018699899937576
  0.1249999521128992  0.1666699702868031  0.0018699899937576
  0.2499999943280624  0.0000000000000000  0.0018699899937576
  0.3750000365432257  0.1666699702868031  0.0018699899937576
  0.4999999886561249  0.0000000000000000  0.0018699899937576
  0.6250000308712881  0.1666699702868031  0.0018699899937576
  0.7499999829841874  0.0000000000000000  0.0018699899937576
  0.8750000251993506  0.1666699702868031  0.0018699899937576
  0.0000000000000000  0.3333300219343480  0.0018699899937576
  0.1249999521128992  0.4999999922211510  0.0018699899937576
  0.2499999943280624  0.3333300219343480  0.0018699899937576
  0.3750000365432257  0.4999999922211510  0.0018699899937576
  0.0000000000000000  0.0000000000000000  0.0018699899937576
  0.6250000308712881  0.4999999922211510  0.0018699899937576
  0.7499999829841874  0.3333300219343480  0.0018699899937576
  0.8750000251993506  0.4999999922211510  0.0018699899937576
  0.0000000000000000  0.6666699625079541  0.0018699899937576
  0.1249999521128992  0.8333300141554991  0.0018699899937576
  0.2499999943280624  0.6666699625079541  0.0018699899937576
  0.3750000365432257  0.8333300141554991  0.0018699899937576
  0.4999999886561249  0.6666699625079541  0.0018699899937576
  0.6250000308712881  0.8333300141554991  0.0018699899937576
  0.7499999829841874  0.6666699625079541  0.0018699899937576
  0.8750000251993506  0.8333300141554991  0.0018699899937576
  0.0000000000000000  0.5555599783168760  0.0864100026098289
  0.3750000365432257  0.7222199606033073  0.0864100026098289
  0.6250000308712881  0.0555599860957249  0.0864100026098289
  0.4999999886561249  0.2222199683821562  0.0864100026098289
  0.2499999943280624  0.8888900002512240  0.0864100026098289
  0.6250000308712881  0.7222199606033073  0.0864100026098289
  0.4999999886561249  0.8888900002512240  0.0864100026098289
  0.6250000308712881  0.3888900080300730  0.0864100026098289
  0.4999999886561249  0.5555599783168760  0.0864100026098289
  0.7499999829841874  0.2222199683821562  0.0864100026098289
  0.8750000251993506  0.0555599860957249  0.0864100026098289
  0.3750000365432257  0.0555599860957249  0.0864100026098289
  0.2499999943280624  0.2222199683821562  0.0864100026098289
  0.1249999521128992  0.0555599860957249  0.0864100026098289
  0.0000000000000000  0.2222199683821562  0.0864100026098289
  0.1249999521128992  0.7222199606033073  0.0864100026098289
  0.1249999521128992  0.3888900080300730  0.0864100026098289
  0.0000000000000000  0.8888900002512240  0.0864100026098289
  0.8750000251993506  0.7222199606033073  0.0864100026098289
  0.7499999829841874  0.8888900002512240  0.0864100026098289
  0.8750000251993506  0.3888900080300730  0.0864100026098289
  0.7499999829841874  0.5555599783168760  0.0864100026098289
  0.2499999943280624  0.5555599783168760  0.0864100026098289
  0.3750000365432257  0.3888900080300730  0.0864100026098289
  0.6278044939242986  0.6143548231361082  0.1709757007768770
  0.7489737831696536  0.1175108252198624  0.1688798973498168
  0.5037318738892925  0.1192506722654085  0.1746169599700665
  0.6315273930424293  0.2772041134347705  0.1713859392108159
  0.1357246100666345  0.9499233771186135  0.1691901375603757
  0.7571635306975018  0.4421327080264428  0.1704523232200686
  0.8874821790541052  0.6130883353460278  0.1707659696866829
  0.8776395062315062  0.2797597631491254  0.1731693595461894
  0.5006132676889290  0.7763290846808616  0.1711208095149841
  0.2484447063604652  0.7828362530785812  0.1721801331862845
  0.5063008440251788  0.4492446075572010  0.1738561797553140
  0.3858627563310139  0.9535732034717687  0.1697765571935665
  0.0052632435441470  0.4436688251257228  0.1736287335579131
  0.3790267250223968  0.2846361757233397  0.1692880120731136
  0.0053856318190655  0.7875360468018051  0.1726269681368238
  0.8755433022695135  0.9476269654406354  0.1738632132262096
  0.1304241643158260  0.2844088293444056  0.1672701040422459
  -0.0038002094916527  0.1154725637740426  0.1708208001861586
  0.2510758116032897  0.1190231391108675  0.1704632981196532
  0.1331006320930991  0.6178723988549327  0.1698329941737593
  0.7608293067912943  0.7773294139988078  0.1705341993002231
  0.2570192135137687  0.4538716321569637  0.1714398376410609
  0.3786445785067617  0.6168967315676350  0.1721722458656203
  0.6333832768855332  0.9497137907776905  0.1744085384998179
  0.5182606404470848  0.6814189230062311  0.2559107577710090
  0.6415765978241215  0.5120121372486997  0.2578468062948439
  0.5113908656063233  0.3525917270649619  0.2577586725980110
  0.5214897243941873  0.0111869874588695  0.2592409506799900
  0.7625674182263841  0.6744407158152322  0.2559944979672339
  0.8881282349929549  0.8456747241449620  0.2543778113792404
  0.3927501545889545  0.8498939618561578  0.2586241073407095
  0.7649654395081950  0.0237813293172680  0.2573297371376548
  0.6309161968135605  0.1733723374912491  0.2633217129731910
  0.7625408885968556  0.3439646052900848  0.2604321618843450
  0.2656979265754167  0.3526824330556574  0.2573032473256598
  0.8992507539008568  0.5174732418019152  0.2548728038134947
  0.2760561055718406  0.6883498327775057  0.2602145727311481
  0.3940237883754391  0.1848432692348536  0.2606157485410269
  0.0190019221710426  0.3487398269771494  0.2625061360284243
  0.1474608786114656  0.8505212290600936  0.2549614219970484
  0.8824950181905442  0.1836834521581573  0.2612231143758915
  0.0214927895831072  0.0171059636452826  0.2573003023293248
  0.2671518101753547  0.0153036118876211  0.2630902542032162
  0.0279481089573065  0.6854532937896017  0.2596693549197359
  0.1386469503075819  0.1862041234096825  0.2544715787171447
  0.1451008981811590  0.5237471635273950  0.2614788855982215
  0.3908042635847624  0.5163654644267114  0.2563976057082626
  0.6453677549575527  0.8481844677402998  0.2613709201665806
  0.7407060490958433  0.5986646111282645  0.3819134689543996
  0.7626601849224819  0.6385478498591080  0.4696051060416220
  0.6033073838435105  0.7446497310852285  0.4130393799019508
  0.5167848887483502  0.6211652075612385  0.3468817570139608
  0.3988964319464683  0.7101419767373333  0.4123803799260683
  0.4209116305639907  0.6131425370750507  0.4525938935464431
  0.5667115470290608  0.7371351972880203  0.4782803611053992
  0.6350732059186887  0.5715557793622966  0.4861806943384229
  0.7679741062507653  0.5023783414797873  0.4205783665968338
  0.4055671150045682  0.5478612276442001  0.3667183166677753
  0.7274506179058371  1.0717819975306957  0.4738554303725631
  0.8396178676293391  0.9973166594856092  0.4885548049963224
  -0.0410779283017144  1.2788679421701650  0.4707903551130195
  -0.1407194393536825  1.3356422026950576  0.4966945223250901
  0.6844307453854429  0.9074682465686968  0.8233212830157352
  0.6374844338227165  0.9854631518287486  0.7850837841720201
  0.4874855842997819  0.5509096609927631  0.8686443091654539
  0.3545725789537887  0.5232524799119439  0.8819699481044360
  0.3812477400821569  0.0647758829927080  0.7833635133714932
  0.2686687955714013  0.1129923568251902  0.8092203598204509
  0.0863757471505687  0.6590221883904284  0.8676484184028854
  0.1471011973293615  0.6467889636426540  0.9236557816519892
  0.0332355589071754  0.7523468434275907  0.7932982167832420
  0.1382155085729905  0.8260641130110228  0.7944377572035971
  0.4486072357021848  -0.0192560978949496  0.3475324963466442
  0.7247510182103611  0.0942315944291825  0.8678843956417472
  0.6372466848079726  0.1888619929208836  0.8783661330827536
  0.9639649437017278  0.3551904289104609  0.7212183852894595
  0.9709981924226386  0.2728668278315614  0.7573684753897065
  0.5032635454230967  0.3499761434804264  0.6317507594061551
  0.4367503857842279  0.3275248970636780  0.6884073535614412
  1.1530643677937011  0.4344289933175821  0.4840876856113897
  1.0134708718482708  0.4194767698467370  0.4802416428097445
  0.5804986853566185  0.8675151721554206  0.3522387078589976
  0.7138158624013303  0.8853432839031927  0.3517978434343341
  0.6392629304170467  0.8975281266869970  0.6151243155244090
  0.6923053854644774  0.9952069244154652  0.6381766455792569
  0.2966400072537772  0.9884911216095553  0.4743109018302225
  0.2468175728297820  1.0373605723207551  0.4244520236749514
  0.8788718209758142  0.6890298694658916  0.5305976910910436
  0.8488571317707594  0.7936257314053080  0.5495285736152280
  0.0120836532646156  0.4108565083021707  0.8047821670114005
  0.1067911767184738  0.4392380980890246  0.8443349711688020
  0.6811022792357927  0.5579211005776600  0.7573714851820588
  0.6720664071877892  0.5154217918466628  0.7037567295456210
  0.3517449209740621  0.2475559385719381  0.3714912835388825
  0.3031674222518757  0.1463813380498891  0.3589989055693405
  0.5897175223596998  0.8075087822945891  0.8797268681518103
  0.4568430300461256  0.2860063245995284  0.8478244568704274
  0.3702344684844763  0.3032079594647024  0.7969528591510019
  0.4325128496187111  0.0031968157548885  0.9073749600581524
  0.5653860281782040  0.0596258921938166  0.9044250371284710
  0.0860530705439327  0.9167687250642474  0.6468841658763390
  0.1135772813714683  0.8244871729427512  0.6090714888732509
  0.4271961852621526  0.4000156460902173  0.3794235687840331
  0.3160859746280625  0.3841448495443883  0.3405318990832597
  0.1198304461798165  0.7203007207893675  0.5344742047207800
  0.2135361950021702  0.6960801944101331  0.5780498372438425
  0.2370294663797793  0.1977419867829949  0.6603632313983409
  0.1334894686657973  0.1555105361072452  0.6920908078926731
  0.8173770961737574  0.3438586433640492  0.7688698241862838
  0.7046236379849320  0.4193010904365426  0.7592307534856175
  0.8206634254229805  0.7930442177953002  0.7175253777122941
  0.7250882660470130  0.8523745475791160  0.7484614258280219
  0.8002931723643897  0.2722394542207411  0.5757205708970017
  0.7066414714301641  0.2568163561551810  0.5331994070684645
  0.3398593291817291  0.5954036640668473  0.6254645013767667
  0.2042057937992504  0.5576389413913553  0.6008420583817561
  0.8221167633636076  0.1181556977865257  0.6489835299122776
  0.1825222211056363  0.1417990582490807  0.5696035045011208
  0.7182944035620551  0.6613642920280489  0.8313913187158098
  0.7264434266686079  0.7156793714962660  0.7711480431462960
  0.8826131063709527  0.6427224759169434  0.8103212148503326
  0.0058647951005311  0.5852970567316952  0.8100296297202578
  0.3623624446418107  0.5334157710080836  0.5472953214491449
  0.3960441369442795  0.4798533560353805  0.4994609109857236
  0.8560088458671867  0.0569959177110704  0.7198023502847350
  0.8653929635350769  -0.0177939811551962  0.7632173854854435
  0.4429272783142686  0.6402186223009136  0.6981610194835537
  0.5093280630581783  0.6823629332292450  0.6538725188382823
  0.5350813210854189  0.1696146447986402  0.4947315136574258
  0.9420749537492027  0.9161219807532506  0.5607213396029825
  0.8102578183157256  0.9420100588117847  0.5745180141686508
  0.6893336679754725  0.2626144524491811  0.3502547631962545
  0.6801003620534962  0.3720617320612427  0.3586654156536583
  0.2750403495107303  0.3672222552441892  0.8626106418864001
  0.2177303949070132  0.3936514884620540  0.9153271869595928
  0.7209193183288295  0.5489502416520750  0.8798387055960996
  0.6568661762221107  0.6284459450132531  0.9148532082360803
  0.8992782021139567  0.4820078456774597  0.8622882361349796
  0.5887527172727905  0.2436898682097454  0.7053691736868790
  0.6855657795354810  0.2601939497227981  0.7522081794716823
  0.4753318660099505  0.5194737929696981  0.7491489935965182
  0.3861171328986535  0.5573959826927428  0.7851077087289874
  0.5788090261887541  0.1201032654630782  0.7584517582494920
  0.5757955471833743  0.0880555448973900  0.8183780179594969
  0.4001382138798213  0.7664522638070067  0.9157341623843300
  0.4226961900856060  0.6895724681756566  0.8748050746849831
  0.0894264438061379  0.1402845479274328  0.8521598132427632
  0.1738848001455879  0.1773883549563227  0.8946047289747409
  0.8821277536586233  0.6704727194282541  0.6083846229378349
  0.3874607371930789  0.1013653549391183  0.6126388373734066
  0.4013189970039083  0.2054813230223786  0.6169485813389191
  0.0005191509095173  0.5518932752603011  0.6140286558005996
  0.0573046464991386  0.5058415513611939  0.5649443322812359
  0.3110417686425808  0.4196228858994809  0.7382651479069497
  0.2432908568130254  0.3190098748410649  0.7309244131259836
  1.0938065251231712  0.2979096326204539  0.6530342713557415
  1.0560006056853670  0.3942634702383042  0.6270806777059208
  0.5092068369492920  0.4479359157628665  0.5635667582338528
  0.6390771174555464  0.3835003081076818  0.5721476158713572
  0.0972547856927733  1.0953698378689869  0.3445815036463994
  0.0905025179989608  1.1477357067178238  0.3937933132083306
  0.6617577339432718  0.7180954644580599  0.6228602580262727
  0.6535285406894187  0.7741156040219646  0.6722795144349979
  0.3214549417090278  0.9191498324883780  0.8219817618186352
  0.3447846666201037  0.8210572173664186  0.8402028606423908
  0.0555858175612462  0.8591873294503327  0.9069330812920130
  0.1486960791781166  0.7685725726321275  0.9054523714020257
  0.3606112664142075  0.8000890059539606  0.6611373173406935
  0.3108241271554250  0.8765640541354264  0.6965955037243434
  0.8638261006522130  0.8243281123929727  0.8720660210095745
  0.2764664215691990  0.3690894233534187  0.4334725361194126
  0.2953301985796149  0.3039569730963808  0.4788038721055055
  0.0179986823776125  0.4053298673319214  0.3602875926545286
  -0.0945218385186648  0.3422732484534629  0.3419641556176993
  0.6555470593083074  0.4998538752528404  0.6213078495239729
  0.7787801723929496  0.5634862329916169  0.6392477034909470
  0.1874460261387657  0.8698990027592998  0.5354969837182648
  0.2953717626999495  0.9382677464467372  0.5591735614726611
  0.8170758224318878  0.9917899321469011  0.4034796520157831
  0.8578354583499599  0.9760892624321599  0.3467645137091971
  0.9694175753390686  0.1752630101328617  0.5772540706168278
  0.9687611446651299  0.2373855381142394  0.6265794687015466
  0.2214631371658856  0.0271395532598058  0.8989835583022852
  0.2261605618644655  0.9185760988301125  0.9086176394931798
  0.8758284837560378  0.0466265998239375  0.9111684009134055
  -0.0129675547357544  0.8212672592503280  0.6700225589879393
  0.0589070545179262  1.0129625350858000  0.7160157716236395
  0.1938455783925470  1.0445793610593419  0.7261278319410751
  1.0901270405735919  0.7501986160259169  0.3799853077139105
  1.0176698910078588  0.6961670193135842  0.4543236125862609
  1.0487319711609038  0.6114322254829789  0.4897753391469664
  0.9657833646182591  0.1003470031553874  0.7851001063010693
  -0.0496843545154282  0.1883427625668272  0.8195884217643001
  1.0710918625308887  0.5591958288425971  0.3699723303289972
  1.0808051115333850  0.4896474877038051  0.4183282309874967
  0.3433873906955944  0.1407593372564683  0.4832760723333738
  0.3421082649508617  0.1763092246088963  0.5368646492854302
  0.4990696797526021  -0.0283116964792081  0.5926816074918180
  0.3864878033412056  0.9473072911723398  0.6285622828878107
  0.6885881035287215  0.3392936861823245  0.8509616925580484
  0.6532810476554338  0.3305213540651898  0.9087604953353813
  0.9227767605212246  0.2163437487930540  0.8997705858151134
  0.9505218260808761  0.3150758680771353  0.8871962061552606
  1.1577403862486795  0.0520943653329842  0.5442944649165756
  0.8753013405954968  0.4927564614369352  0.9163080694076507
  0.9452725323764811  0.6662717419874212  0.6603039153224562
  0.9780652836440205  0.8430184588938955  0.8373617956261737
  1.0078302246094832  0.7703684912921522  0.7217510002923184
  0.9673378907171526  0.6946839371992255  0.3735247434087625
  0.4691934207556964  0.9622723310371786  0.4066285505834618
  0.6522434720786677  0.8929388548073367  0.9033426348757798
  0.7090127661639487  1.1401785126312112  0.6811169248326489
  0.5251723072002173  1.1597388805927997  0.3706555761400777
  0.6322772107215027  1.1157706073698024  0.3525243130141659
  0.6365888446012460  0.1698664960914280  0.4542679509415589
  0.9507207729430561  1.1136657973063446  0.4633406769220300
  1.0621514882777181  1.1624562918341890  0.4881858767420008
  0.8779995427417863  0.9805702645473210  0.8652645760497092
  0.6984057642962047  0.5561785800565393  0.4119329281464043
  0.6742649014299317  0.6168222787378194  0.4574476173697652
  0.5805928392581631  0.5204428573425445  0.3918383030180528
  0.5791644535717790  0.6980704779759589  0.4430296916078024
  0.4851432795910188  0.5874891645818691  0.3787142176939537
  0.4619094453747084  0.6527032954990637  0.4220058798038239
  0.5662118628668605  0.4328771349563135  0.3831962142489150
  0.8106603503965151  1.0498331094880757  0.4659462433308419
  -0.0775621872478120  1.3426971607397382  0.4723531768722966
  0.7119588156713763  0.9445171593949492  0.7930847308565872
  0.4044544256213340  0.5722695054649587  0.8687598293917489
  0.2936713546653649  0.0535871038807830  0.7898899644112538
  0.1479417181013898  0.6783654752791870  0.8906756386034903
  0.0528441518307738  0.8169012046062064  0.7866343307077918
  0.6434580764226928  0.1216802484242625  0.8705701930888466
  0.9877672043681774  0.3388341731669242  0.7560009641865598
  0.9323904582352643  0.2589937071925889  0.8720770275738604
  0.4770822500761985  0.2994637186040582  0.6564391363361486
  1.0764764038422527  0.4674940798444284  0.4917914001349526
  0.6534367702810849  0.8325483632066616  0.3439216422674949
  0.6589521834640573  0.9611777746462810  0.6085619055163737
  0.3219252936107772  1.0300132510780817  0.4465276126850533
  0.8342487087296638  0.7248744779612447  0.5555599007889006
  0.0348788564236162  0.4662723651526367  0.8264673148513232
  0.6459784958546303  0.5065586356307282  0.7383711943494776
  0.3727035396272693  0.1866901926938740  0.3533470871458492
  0.6668966961909637  0.8427524427368943  0.8786921847380920
  0.3758970690858330  0.2985504857313870  0.8354980577483556
  0.5143965053723440  0.0037238733233501  0.9192854010861967
  0.0513352176036214  0.8675503583825304  0.6269393649030787
  0.3498880196601519  0.3672820593952150  0.3742109745387586
  0.1541940327318054  0.7452636945917304  0.5661510399291023
  0.1716654898296733  0.2151286013849094  0.6836068503422399
  0.7328257788867386  0.3555669142104514  0.7763038715537709
  0.7294269089003292  0.7941432178614356  0.7278806168590848
  0.7451551633617092  0.3058353391967382  0.5524953844477177
  0.2808976686011593  0.5988103132616265  0.5983217703086166
  1.1254660010548867  0.1172084357341630  0.5470734426525744
  0.7441850938698196  0.6580586106273333  0.7942603878447448
  -0.0272051293913365  0.6473069372426914  0.8189564447839731
  0.4295047923909260  0.5143235335005327  0.5281056988336859
  0.9132203092986552  0.0215398213790806  0.7417981298952758
  0.4275510145643694  0.6636619677845796  0.6659472635372850
  0.8635769258774906  0.9325201447799333  0.5448482546256830
  0.7345068784206125  0.3258030688632665  0.3448408632499951
  0.2325685392025266  0.4155573963148770  0.8801968971096930
  0.6553570950922271  0.6008818199262141  0.8803969425779633
  0.8286274490383031  0.4814323594996790  0.8836044810411461
  0.6465794675308636  0.2083268631832788  0.7292766869469323
  0.3921034567615758  0.5448259427559627  0.7498593391821242
  0.5455562657862713  0.0750809093283314  0.7829436736777088
  0.4500076999313476  0.7541774346818060  0.8854626461144229
  0.1551048759061668  0.1203588281372736  0.8763583820766835
  -0.0958837309777426  0.6238499941785526  0.6331238456193633
  0.3397007556393521  0.1606174197716294  0.6096107001912693
  0.0663825824016638  0.5088262463200650  0.6021672850057417
  0.3211699981465418  0.3480368156614166  0.7381724283851672
  1.0223578682948404  0.3443489488851956  0.6487762672245491
  0.5709543995164826  0.4191530463529212  0.5888999636129936
  0.1432757206580325  1.1171960688834195  0.3711008364723888
  0.6178650926811343  0.7702710082975462  0.6366619828113600
  0.2869600832944498  0.8559604973544325  0.8181059926284485
  0.1360551357067457  0.8396830846038499  0.9217814922374251
  0.3264311822052194  0.8623768493801802  0.6618704070896351
  0.9290283924017344  0.8641969620498028  0.8666747442813002
  0.2686705028020694  0.3660432204848693  0.4681210921891709
  -0.0051372122634996  0.3408460301338139  0.3442898748947937
  0.7070438215494315  0.5299235395974385  0.6502318280609980
  0.2241568822775417  0.9315495125684728  0.5344811790643303
  0.8164965389382504  0.9473845608124714  0.3755494679373508
  0.9180386913040371  0.1996511032175413  0.6045071230487528
  0.1325129722154555  1.0354995392852651  0.7006548659153479
  1.0449704286684187  0.6974393648647355  0.3935367700688793
  1.0291436043214524  0.6753645279501527  0.4898821775727437
  0.0089375349956777  0.1573611431061222  0.7968740647422580
  1.0385664565742188  0.4985668767779993  0.3861727792461178
  0.3697771375041777  0.1942460132847773  0.5037125174888933
  0.4133838749840014  -0.0185185406106755  0.5964021106839938
  0.6281471779188665  0.3110974961206905  0.8745381012900026
  0.9502552965018439  0.7735301530589769  0.6928308383537817
  0.5064939226260152  0.9762567008472892  0.3750149174991399
  0.7583543241200505  1.0887186845040611  0.6682261753590230
  0.6135997005176912  1.1668871771876290  0.3756782691565802
  0.6240796454166549  1.1595817034816382  0.4886224361294318
  1.0151082023152456  0.1629528041137860  0.4579615640105051
  0.2707538404490862  0.9775610357371394  0.9152627584693673
  0.8474773924859389  1.0436506883819545  0.8764025385938612
