1-pos-1                                 
   1.00000000000000     
    11.0985002518000009    0.0000000000000000    0.0000000000000000
     0.0000000000000000   14.4173002242999999    0.0000000000000000
     0.0000000000000000    0.0000000000000000   26.7964000702000007
   Pt   H    C    O 
    96    10     6     1
Selective dynamics
Direct
  0.4999999886561284  0.3333300219343514  0.0018699899937573   F   F   F
  0.1249999521129013  0.1666699702868044  0.0018699899937573   F   F   F
  0.2499999943280642  0.0000000000000000  0.0018699899937573   F   F   F
  0.3750000365432271  0.1666699702868044  0.0018699899937573   F   F   F
  0.4999999886561284  0.0000000000000000  0.0018699899937573   F   F   F
  0.6250000308712913  0.1666699702868044  0.0018699899937573   F   F   F
  0.7499999829841855  0.0000000000000000  0.0018699899937573   F   F   F
  0.8750000251993484  0.1666699702868044  0.0018699899937573   F   F   F
  0.0000000000000000  0.3333300219343514  0.0018699899937573   F   F   F
  0.1249999521129013  0.4999999922211487  0.0018699899937573   F   F   F
  0.2499999943280642  0.3333300219343514  0.0018699899937573   F   F   F
  0.3750000365432271  0.4999999922211487  0.0018699899937573   F   F   F
  0.0000000000000000  0.0000000000000000  0.0018699899937573   F   F   F
  0.6250000308712913  0.4999999922211487  0.0018699899937573   F   F   F
  0.7499999829841855  0.3333300219343514  0.0018699899937573   F   F   F
  0.8750000251993484  0.4999999922211487  0.0018699899937573   F   F   F
  0.0000000000000000  0.6666699625079531  0.0018699899937573   F   F   F
  0.1249999521129013  0.8333300141555000  0.0018699899937573   F   F   F
  0.2499999943280642  0.6666699625079531  0.0018699899937573   F   F   F
  0.3750000365432271  0.8333300141555000  0.0018699899937573   F   F   F
  0.4999999886561284  0.6666699625079531  0.0018699899937573   F   F   F
  0.6250000308712913  0.8333300141555000  0.0018699899937573   F   F   F
  0.7499999829841855  0.6666699625079531  0.0018699899937573   F   F   F
  0.8750000251993484  0.8333300141555000  0.0018699899937573   F   F   F
  0.0000000000000000  0.5555599783168788  0.0864100026098313   F   F   F
  0.3750000365432271  0.7222199606033044  0.0864100026098313   F   F   F
  0.6250000308712913  0.0555599860957230  0.0864100026098313   F   F   F
  0.4999999886561284  0.2222199683821557  0.0864100026098313   F   F   F
  0.2499999943280642  0.8888900002512230  0.0864100026098313   F   F   F
  0.6250000308712913  0.7222199606033044  0.0864100026098313   F   F   F
  0.4999999886561284  0.8888900002512230  0.0864100026098313   F   F   F
  0.6250000308712913  0.3888900080300743  0.0864100026098313   F   F   F
  0.4999999886561284  0.5555599783168788  0.0864100026098313   F   F   F
  0.7499999829841855  0.2222199683821557  0.0864100026098313   F   F   F
  0.8750000251993484  0.0555599860957230  0.0864100026098313   F   F   F
  0.3750000365432271  0.0555599860957230  0.0864100026098313   F   F   F
  0.2499999943280642  0.2222199683821557  0.0864100026098313   F   F   F
  0.1249999521129013  0.0555599860957230  0.0864100026098313   F   F   F
  0.0000000000000000  0.2222199683821557  0.0864100026098313   F   F   F
  0.1249999521129013  0.7222199606033044  0.0864100026098313   F   F   F
  0.1249999521129013  0.3888900080300743  0.0864100026098313   F   F   F
  0.0000000000000000  0.8888900002512230  0.0864100026098313   F   F   F
  0.8750000251993484  0.7222199606033044  0.0864100026098313   F   F   F
  0.7499999829841855  0.8888900002512230  0.0864100026098313   F   F   F
  0.8750000251993484  0.3888900080300743  0.0864100026098313   F   F   F
  0.7499999829841855  0.5555599783168788  0.0864100026098313   F   F   F
  0.2499999943280642  0.5555599783168788  0.0864100026098313   F   F   F
  0.3750000365432271  0.3888900080300743  0.0864100026098313   F   F   F
  0.6259867483034753  0.6178846771291617  0.1714662293238263   T   T   T
  0.7506198755250963  0.1178431185188415  0.1714848958360520   T   T   T
  0.5005897779502604  0.1177753677671589  0.1714499403663439   T   T   T
  0.6257369540602085  0.2845280039012508  0.1713773437649095   T   T   T
  0.1255359901274389  0.9508818673830319  0.1713938656704528   T   T   T
  0.7508112415630279  0.4511970584803535  0.1714790262794210   T   T   T
  0.8755974508309947  0.6179900271213157  0.1715621613429050   T   T   T
  0.8755097094364857  0.2846165358065491  0.1714518820657460   T   T   T
  0.4998138077119023  0.7841248667122329  0.1710817254726607   T   T   T
  0.2510964340506803  0.7839477646130604  0.1713530715574905   T   T   T
  0.5005765082652971  0.4513446621379487  0.1719513087067952   T   T   T
  0.3753808942684955  0.9510380501666233  0.1715578659961281   T   T   T
  0.0004898635544421  0.4512352902792571  0.1715338923640104   T   T   T
  0.3755796533311369  0.2845823087284742  0.1714576269131598   T   T   T
  0.0007016859385232  0.7845200890901509  0.1716351704644197   T   T   T
  0.8754768204572656  0.9509848563320844  0.1714454350282679   T   T   T
  0.1253200743858685  0.2844117424232735  0.1713454632073876   T   T   T
  0.0002779889438642  0.1177945625695287  0.1714705525756273   T   T   T
  0.2503366035802088  0.1177125470849063  0.1714492725248675   T   T   T
  0.1251966480784645  0.6178386801908928  0.1716782240398658   T   T   T
  0.7503527880897281  0.7847094294870303  0.1716102668952786   T   T   T
  0.2503348709999997  0.4512413064293597  0.1719433743147150   T   T   T
  0.3752733820528746  0.6154468787833878  0.1728935935689506   T   T   T
  0.6253014059221869  0.9510049482430034  0.1713904954933625   T   T   T
  0.5025849196183430  0.6898563395404196  0.2575774519594063   T   T   T
  0.6281894818049309  0.5213733835485996  0.2581436448403309   T   T   T
  0.5019235698376363  0.3534725155078178  0.2578353419866630   T   T   T
  0.5010295432943934  0.0212270221657249  0.2584060716938552   T   T   T
  0.7518985944350263  0.6884587137585285  0.2588433165615882   T   T   T
  0.8762944954963245  0.8550920790062122  0.2586493384982944   T   T   T
  0.3761166429553384  0.8550676362319365  0.2586703088833744   T   T   T
  0.7509606635718384  0.0214421693594602  0.2583790771322469   T   T   T
  0.6263712297202844  0.1878343270462963  0.2583926790456701   T   T   T
  0.7516052017181849  0.3546209878894473  0.2585838195681944   T   T   T
  0.2504460405568238  0.3533507725043421  0.2577780284592350   T   T   T
  0.8763976573371863  0.5217814920456902  0.2584753657253955   T   T   T
  0.2499246704621996  0.6893674364330664  0.2586038686245544   T   T   T
  0.3760588743504698  0.1874232529268554  0.2584094505167798   T   T   T
  0.0008209557204850  0.3545252855620333  0.2584858325330615   T   T   T
  0.1259121320288941  0.8549693550803497  0.2585756350094854   T   T   T
  0.8760170704353243  0.1877836027581594  0.2584310947520194   T   T   T
  0.0013163705448846  0.0213837438474513  0.2583281279934582   T   T   T
  0.2512390675847556  0.0211744551566539  0.2584022688359155   T   T   T
  0.0009485669412967  0.6884153789720244  0.2588934059898804   T   T   T
  0.1256793301022725  0.1877246437323805  0.2583846749401459   T   T   T
  0.1247707783633629  0.5214788706051650  0.2584696716491166   T   T   T
  0.3759506743640983  0.5228053893315234  0.2615860986717209   T   T   T
  0.6268163413277392  0.8551864874705188  0.2586335999217440   T   T   T
  0.5623962927007398  0.4491374582625056  0.4113249770689933   T   T   T
  0.5283189995670767  0.4914441572209114  0.4983120854221355   T   T   T
  0.6434285797720918  0.6100317653568368  0.4485001770582713   T   T   T
  0.5625886220312069  0.6283093039357226  0.3527223196787688   T   T   T
  0.5329571889798714  0.7487779077589920  0.4147415422946779   T   T   T
  0.3950541143620327  0.7012613628450310  0.4352856213006362   T   T   T
  0.5580249378184163  0.6638821271760946  0.4960824141760938   T   T   T
  0.3921627498700246  0.5490223728284249  0.4841228108033704   T   T   T
  0.4129905694805345  0.4164482256988009  0.4249411597535442   T   T   T
  0.4125644365203271  0.6659381462310563  0.3455793839779062   T   T   T
  0.4725768371524239  0.4769506945445485  0.4215452635055215   T   T   T
  0.4830843220061212  0.5337302598639582  0.4697453770119608   T   T   T
  0.4363358612714947  0.5317938392173645  0.3761988157244716   T   T   T
  0.5505975631327900  0.6247883063980382  0.4609654585219403   T   T   T
  0.4738792628610184  0.6307985844515613  0.3720534223340763   T   T   T
  0.4856839799430901  0.6830318414605685  0.4216035735356698   T   T   T
  0.3836043821355304  0.4889739636725849  0.3420787697292766   T   T   T
 
  0.00000000E+00  0.00000000E+00  0.00000000E+00
  0.00000000E+00  0.00000000E+00  0.00000000E+00
  0.00000000E+00  0.00000000E+00  0.00000000E+00
  0.00000000E+00  0.00000000E+00  0.00000000E+00
  0.00000000E+00  0.00000000E+00  0.00000000E+00
  0.00000000E+00  0.00000000E+00  0.00000000E+00
  0.00000000E+00  0.00000000E+00  0.00000000E+00
  0.00000000E+00  0.00000000E+00  0.00000000E+00
  0.00000000E+00  0.00000000E+00  0.00000000E+00
  0.00000000E+00  0.00000000E+00  0.00000000E+00
  0.00000000E+00  0.00000000E+00  0.00000000E+00
  0.00000000E+00  0.00000000E+00  0.00000000E+00
  0.00000000E+00  0.00000000E+00  0.00000000E+00
  0.00000000E+00  0.00000000E+00  0.00000000E+00
  0.00000000E+00  0.00000000E+00  0.00000000E+00
  0.00000000E+00  0.00000000E+00  0.00000000E+00
  0.00000000E+00  0.00000000E+00  0.00000000E+00
  0.00000000E+00  0.00000000E+00  0.00000000E+00
  0.00000000E+00  0.00000000E+00  0.00000000E+00
  0.00000000E+00  0.00000000E+00  0.00000000E+00
  0.00000000E+00  0.00000000E+00  0.00000000E+00
  0.00000000E+00  0.00000000E+00  0.00000000E+00
  0.00000000E+00  0.00000000E+00  0.00000000E+00
  0.00000000E+00  0.00000000E+00  0.00000000E+00
  0.00000000E+00  0.00000000E+00  0.00000000E+00
  0.00000000E+00  0.00000000E+00  0.00000000E+00
  0.00000000E+00  0.00000000E+00  0.00000000E+00
  0.00000000E+00  0.00000000E+00  0.00000000E+00
  0.00000000E+00  0.00000000E+00  0.00000000E+00
  0.00000000E+00  0.00000000E+00  0.00000000E+00
  0.00000000E+00  0.00000000E+00  0.00000000E+00
  0.00000000E+00  0.00000000E+00  0.00000000E+00
  0.00000000E+00  0.00000000E+00  0.00000000E+00
  0.00000000E+00  0.00000000E+00  0.00000000E+00
  0.00000000E+00  0.00000000E+00  0.00000000E+00
  0.00000000E+00  0.00000000E+00  0.00000000E+00
  0.00000000E+00  0.00000000E+00  0.00000000E+00
  0.00000000E+00  0.00000000E+00  0.00000000E+00
  0.00000000E+00  0.00000000E+00  0.00000000E+00
  0.00000000E+00  0.00000000E+00  0.00000000E+00
  0.00000000E+00  0.00000000E+00  0.00000000E+00
  0.00000000E+00  0.00000000E+00  0.00000000E+00
  0.00000000E+00  0.00000000E+00  0.00000000E+00
  0.00000000E+00  0.00000000E+00  0.00000000E+00
  0.00000000E+00  0.00000000E+00  0.00000000E+00
  0.00000000E+00  0.00000000E+00  0.00000000E+00
  0.00000000E+00  0.00000000E+00  0.00000000E+00
  0.00000000E+00  0.00000000E+00  0.00000000E+00
  0.00000000E+00  0.00000000E+00  0.00000000E+00
  0.00000000E+00  0.00000000E+00  0.00000000E+00
  0.00000000E+00  0.00000000E+00  0.00000000E+00
  0.00000000E+00  0.00000000E+00  0.00000000E+00
  0.00000000E+00  0.00000000E+00  0.00000000E+00
  0.00000000E+00  0.00000000E+00  0.00000000E+00
  0.00000000E+00  0.00000000E+00  0.00000000E+00
  0.00000000E+00  0.00000000E+00  0.00000000E+00
  0.00000000E+00  0.00000000E+00  0.00000000E+00
  0.00000000E+00  0.00000000E+00  0.00000000E+00
  0.00000000E+00  0.00000000E+00  0.00000000E+00
  0.00000000E+00  0.00000000E+00  0.00000000E+00
  0.00000000E+00  0.00000000E+00  0.00000000E+00
  0.00000000E+00  0.00000000E+00  0.00000000E+00
  0.00000000E+00  0.00000000E+00  0.00000000E+00
  0.00000000E+00  0.00000000E+00  0.00000000E+00
  0.00000000E+00  0.00000000E+00  0.00000000E+00
  0.00000000E+00  0.00000000E+00  0.00000000E+00
  0.00000000E+00  0.00000000E+00  0.00000000E+00
  0.00000000E+00  0.00000000E+00  0.00000000E+00
  0.00000000E+00  0.00000000E+00  0.00000000E+00
  0.00000000E+00  0.00000000E+00  0.00000000E+00
  0.00000000E+00  0.00000000E+00  0.00000000E+00
  0.00000000E+00  0.00000000E+00  0.00000000E+00
  0.00000000E+00  0.00000000E+00  0.00000000E+00
  0.00000000E+00  0.00000000E+00  0.00000000E+00
  0.00000000E+00  0.00000000E+00  0.00000000E+00
  0.00000000E+00  0.00000000E+00  0.00000000E+00
  0.00000000E+00  0.00000000E+00  0.00000000E+00
  0.00000000E+00  0.00000000E+00  0.00000000E+00
  0.00000000E+00  0.00000000E+00  0.00000000E+00
  0.00000000E+00  0.00000000E+00  0.00000000E+00
  0.00000000E+00  0.00000000E+00  0.00000000E+00
  0.00000000E+00  0.00000000E+00  0.00000000E+00
  0.00000000E+00  0.00000000E+00  0.00000000E+00
  0.00000000E+00  0.00000000E+00  0.00000000E+00
  0.00000000E+00  0.00000000E+00  0.00000000E+00
  0.00000000E+00  0.00000000E+00  0.00000000E+00
  0.00000000E+00  0.00000000E+00  0.00000000E+00
  0.00000000E+00  0.00000000E+00  0.00000000E+00
  0.00000000E+00  0.00000000E+00  0.00000000E+00
  0.00000000E+00  0.00000000E+00  0.00000000E+00
  0.00000000E+00  0.00000000E+00  0.00000000E+00
  0.00000000E+00  0.00000000E+00  0.00000000E+00
  0.00000000E+00  0.00000000E+00  0.00000000E+00
  0.00000000E+00  0.00000000E+00  0.00000000E+00
  0.00000000E+00  0.00000000E+00  0.00000000E+00
  0.00000000E+00  0.00000000E+00  0.00000000E+00
  0.00000000E+00  0.00000000E+00  0.00000000E+00
  0.00000000E+00  0.00000000E+00  0.00000000E+00
  0.00000000E+00  0.00000000E+00  0.00000000E+00
  0.00000000E+00  0.00000000E+00  0.00000000E+00
  0.00000000E+00  0.00000000E+00  0.00000000E+00
  0.00000000E+00  0.00000000E+00  0.00000000E+00
  0.00000000E+00  0.00000000E+00  0.00000000E+00
  0.00000000E+00  0.00000000E+00  0.00000000E+00
  0.00000000E+00  0.00000000E+00  0.00000000E+00
  0.00000000E+00  0.00000000E+00  0.00000000E+00
  0.00000000E+00  0.00000000E+00  0.00000000E+00
  0.00000000E+00  0.00000000E+00  0.00000000E+00
  0.00000000E+00  0.00000000E+00  0.00000000E+00
  0.00000000E+00  0.00000000E+00  0.00000000E+00
  0.00000000E+00  0.00000000E+00  0.00000000E+00
  0.00000000E+00  0.00000000E+00  0.00000000E+00
  0.00000000E+00  0.00000000E+00  0.00000000E+00
