1-pos-1                                 
   1.00000000000000     
    11.0985002518000009    0.0000000000000000    0.0000000000000000
     0.0000000000000000   14.4173002242999999    0.0000000000000000
     0.0000000000000000    0.0000000000000000   26.7964000702000007
   Pt   H    C    O 
    96    10     6     1
Selective dynamics
Direct
  0.0000000000000000  0.0000000000000000  0.0018699899937573   F   F   F
  0.1249999521129013  0.1666699702868044  0.0018699899937573   F   F   F
  0.2499999943280642  0.0000000000000000  0.0018699899937573   F   F   F
  0.3749999464409584  0.1666699702868044  0.0018699899937573   F   F   F
  0.4999999886561284  0.0000000000000000  0.0018699899937573   F   F   F
  0.6249999407690225  0.1666699702868044  0.0018699899937573   F   F   F
  0.7499999829841855  0.0000000000000000  0.0018699899937573   F   F   F
  0.8749999350970867  0.1666699702868044  0.0018699899937573   F   F   F
  0.0000000000000000  0.3333300219343514  0.0018699899937573   F   F   F
  0.1249999521129013  0.4999999922211487  0.0018699899937573   F   F   F
  0.2499999943280642  0.3333300219343514  0.0018699899937573   F   F   F
  0.3749999464409584  0.4999999922211487  0.0018699899937573   F   F   F
  0.4999999886561284  0.3333300219343514  0.0018699899937573   F   F   F
  0.6249999407690225  0.4999999922211487  0.0018699899937573   F   F   F
  0.7499999829841855  0.3333300219343514  0.0018699899937573   F   F   F
  0.8749999350970867  0.4999999922211487  0.0018699899937573   F   F   F
  0.0000000000000000  0.6666700318690673  0.0018699899937573   F   F   F
  0.1249999521129013  0.8333299447943858  0.0018699899937573   F   F   F
  0.2499999943280642  0.6666700318690673  0.0018699899937573   F   F   F
  0.3749999464409584  0.8333299447943858  0.0018699899937573   F   F   F
  0.4999999886561284  0.6666700318690673  0.0018699899937573   F   F   F
  0.6249999407690225  0.8333299447943858  0.0018699899937573   F   F   F
  0.7499999829841855  0.6666700318690673  0.0018699899937573   F   F   F
  0.8749999350970867  0.8333299447943858  0.0018699899937573   F   F   F
  0.0000000000000000  0.2222199683821557  0.0864100026098313   F   F   F
  0.1249999521129013  0.0555599860957230  0.0864100026098313   F   F   F
  0.2499999943280642  0.2222199683821557  0.0864100026098313   F   F   F
  0.3749999464409584  0.0555599860957230  0.0864100026098313   F   F   F
  0.4999999886561284  0.2222199683821557  0.0864100026098313   F   F   F
  0.6249999407690225  0.0555599860957230  0.0864100026098313   F   F   F
  0.7499999829841855  0.2222199683821557  0.0864100026098313   F   F   F
  0.8749999350970867  0.0555599860957230  0.0864100026098313   F   F   F
  0.0000000000000000  0.5555599783168788  0.0864100026098313   F   F   F
  0.1249999521129013  0.3888900080300743  0.0864100026098313   F   F   F
  0.2499999943280642  0.5555599783168788  0.0864100026098313   F   F   F
  0.3749999464409584  0.3888900080300743  0.0864100026098313   F   F   F
  0.4999999886561284  0.5555599783168788  0.0864100026098313   F   F   F
  0.6249999407690225  0.3888900080300743  0.0864100026098313   F   F   F
  0.7499999829841855  0.5555599783168788  0.0864100026098313   F   F   F
  0.8749999350970867  0.3888900080300743  0.0864100026098313   F   F   F
  0.0000000000000000  0.8888900002512230  0.0864100026098313   F   F   F
  0.1249999521129013  0.7222199606033044  0.0864100026098313   F   F   F
  0.2499999943280642  0.8888900002512230  0.0864100026098313   F   F   F
  0.3749999464409584  0.7222199606033044  0.0864100026098313   F   F   F
  0.4999999886561284  0.8888900002512230  0.0864100026098313   F   F   F
  0.6249999407690225  0.7222199606033044  0.0864100026098313   F   F   F
  0.7499999829841855  0.8888900002512230  0.0864100026098313   F   F   F
  0.8749999350970867  0.7222199606033044  0.0864100026098313   F   F   F
  0.2508045929119049  0.4493933211030097  0.1719179943262077   T   T   T
  0.4994470900544670  0.4492545772224972  0.1720499732523209   T   T   T
  0.1245266251594472  0.6154435622763046  0.1708653847110924   T   T   T
  0.8759255967471802  0.2815840365754738  0.1711589522123731   T   T   T
  0.9997570560348095  0.4480724988521132  0.1709455448364352   T   T   T
  0.0014659241673769  0.1155418675760771  0.1711919232260399   T   T   T
  0.1260667185180395  0.9485171966541373  0.1711273214150424   T   T   T
  0.3760056650539312  0.9485078145496644  0.1711610813105438   T   T   T
  0.8748185616015292  0.6151425147910743  0.1711788128024878   T   T   T
  0.5010910807574405  0.1151190835744558  0.1711227859796551   T   T   T
  0.2510508818248880  0.1153797758822463  0.1712326755964355   T   T   T
  0.2506314786939967  0.7818713308953988  0.1708598576107292   T   T   T
  0.7515265313967703  0.1152720162438072  0.1711202346094822   T   T   T
  0.6257056054825583  0.2815881963206266  0.1710638889074687   T   T   T
  0.3749674686823781  0.6140321748513315  0.1727426927240430   T   T   T
  0.0005758750852678  0.7818251340564615  0.1712133243830252   T   T   T
  0.7502737264214119  0.7814789874436201  0.1713181224108951   T   T   T
  0.6258386184019358  0.9483383850148854  0.1711063171746616   T   T   T
  0.8758802989491841  0.9482668251581359  0.1711546107339927   T   T   T
  0.7499790571850014  0.4480611485105399  0.1711643164612866   T   T   T
  0.3750951688045490  0.2826039453159908  0.1721852332966876   T   T   T
  0.1278052344229721  0.2828924046935626  0.1726561031267266   T   T   T
  0.5000382374766303  0.7813414548486008  0.1710759173640142   T   T   T
  0.6252672693364119  0.6149086111342967  0.1712445975139758   T   T   T
  0.3750861240222676  0.5115204588448208  0.2645169572783601   T   T   T
  0.1225203344742241  0.5142893873004155  0.2562008235367728   T   T   T
  0.0024624625833596  0.0131249265177260  0.2576254303327019   T   T   T
  0.8775851426660068  0.1797691003067428  0.2579938560464541   T   T   T
  0.7531062964544901  0.3467646525335653  0.2578041880373974   T   T   T
  0.0005225170268233  0.6811206344290497  0.2578584904044519   T   T   T
  0.6262718118731385  0.8467073478154674  0.2576862310889609   T   T   T
  0.2512291467550227  0.6804418456232852  0.2568597244787370   T   T   T
  0.7508273746561471  0.6806464787548165  0.2579833645101672   T   T   T
  0.0007122623891718  0.3462871050388472  0.2576012654812416   T   T   T
  0.1265057501139211  0.8470371216122103  0.2576974909421281   T   T   T
  0.6284070062503986  0.1790113073932318  0.2578531496770111   T   T   T
  0.2525775625098987  0.0129152582063341  0.2577876572723738   T   T   T
  0.3787180675790793  0.1784307698511540  0.2576179009679223   T   T   T
  0.8754627258775187  0.5139728950034410  0.2573256375831079   T   T   T
  0.5028908721700489  0.0129602667454236  0.2577558017202080   T   T   T
  0.3766547406682719  0.8467105648576450  0.2576208196451049   T   T   T
  0.5063769616984217  0.3455942866046371  0.2568525697373190   T   T   T
  0.1270785334818996  0.1787232719353398  0.2578693980702909   T   T   T
  0.7528050759779674  0.0130460573888982  0.2574842432056741   T   T   T
  0.8763388314812843  0.8468945171430065  0.2577476533124781   T   T   T
  0.2541296183222173  0.3454817912042074  0.2604331456395315   T   T   T
  0.6271015559135051  0.5136619533916758  0.2577738416204980   T   T   T
  0.5006689159292890  0.6794085149290083  0.2576356144016216   T   T   T
  0.6072676308134746  0.5031681625838615  0.4023910435547222   T   T   T
  0.5109722259611971  0.6601890814060454  0.4157096415915476   T   T   T
  0.1837733287315473  0.5593835282943118  0.3457420975225816   T   T   T
  0.3646333494636309  0.6624390606189650  0.3464424905772745   T   T   T
  0.2303672649817798  0.5069825793908365  0.4022182249948969   T   T   T
  0.2858723040319617  0.6737747523204902  0.4033529251808474   T   T   T
  0.4241294794263055  0.4039688679731910  0.4013540914553388   T   T   T
  0.4311229744556755  0.5704432039259046  0.4461742521877454   T   T   T
  0.5644907869316853  0.5566135832482502  0.3458197997383294   T   T   T
  0.5041083210023984  0.3898552895294216  0.3447162072969192   T   T   T
  0.4521832341763172  0.4407683952696360  0.3670296905122967   T   T   T
  0.5283377597119667  0.5252722092364266  0.3806055568567714   T   T   T
  0.3341926568793880  0.4644621769840143  0.3402980859055305   T   T   T
  0.4553895157877506  0.5982032751930788  0.4090839727194364   T   T   T
  0.2643291567120301  0.5403358419432109  0.3677895380343230   T   T   T
  0.3402894909391065  0.6251223322333388  0.3811699871307326   T   T   T
  0.2633874980642332  0.3878814817544693  0.3325550473568626   T   T   T
 
  0.00000000E+00  0.00000000E+00  0.00000000E+00
  0.00000000E+00  0.00000000E+00  0.00000000E+00
  0.00000000E+00  0.00000000E+00  0.00000000E+00
  0.00000000E+00  0.00000000E+00  0.00000000E+00
  0.00000000E+00  0.00000000E+00  0.00000000E+00
  0.00000000E+00  0.00000000E+00  0.00000000E+00
  0.00000000E+00  0.00000000E+00  0.00000000E+00
  0.00000000E+00  0.00000000E+00  0.00000000E+00
  0.00000000E+00  0.00000000E+00  0.00000000E+00
  0.00000000E+00  0.00000000E+00  0.00000000E+00
  0.00000000E+00  0.00000000E+00  0.00000000E+00
  0.00000000E+00  0.00000000E+00  0.00000000E+00
  0.00000000E+00  0.00000000E+00  0.00000000E+00
  0.00000000E+00  0.00000000E+00  0.00000000E+00
  0.00000000E+00  0.00000000E+00  0.00000000E+00
  0.00000000E+00  0.00000000E+00  0.00000000E+00
  0.00000000E+00  0.00000000E+00  0.00000000E+00
  0.00000000E+00  0.00000000E+00  0.00000000E+00
  0.00000000E+00  0.00000000E+00  0.00000000E+00
  0.00000000E+00  0.00000000E+00  0.00000000E+00
  0.00000000E+00  0.00000000E+00  0.00000000E+00
  0.00000000E+00  0.00000000E+00  0.00000000E+00
  0.00000000E+00  0.00000000E+00  0.00000000E+00
  0.00000000E+00  0.00000000E+00  0.00000000E+00
  0.00000000E+00  0.00000000E+00  0.00000000E+00
  0.00000000E+00  0.00000000E+00  0.00000000E+00
  0.00000000E+00  0.00000000E+00  0.00000000E+00
  0.00000000E+00  0.00000000E+00  0.00000000E+00
  0.00000000E+00  0.00000000E+00  0.00000000E+00
  0.00000000E+00  0.00000000E+00  0.00000000E+00
  0.00000000E+00  0.00000000E+00  0.00000000E+00
  0.00000000E+00  0.00000000E+00  0.00000000E+00
  0.00000000E+00  0.00000000E+00  0.00000000E+00
  0.00000000E+00  0.00000000E+00  0.00000000E+00
  0.00000000E+00  0.00000000E+00  0.00000000E+00
  0.00000000E+00  0.00000000E+00  0.00000000E+00
  0.00000000E+00  0.00000000E+00  0.00000000E+00
  0.00000000E+00  0.00000000E+00  0.00000000E+00
  0.00000000E+00  0.00000000E+00  0.00000000E+00
  0.00000000E+00  0.00000000E+00  0.00000000E+00
  0.00000000E+00  0.00000000E+00  0.00000000E+00
  0.00000000E+00  0.00000000E+00  0.00000000E+00
  0.00000000E+00  0.00000000E+00  0.00000000E+00
  0.00000000E+00  0.00000000E+00  0.00000000E+00
  0.00000000E+00  0.00000000E+00  0.00000000E+00
  0.00000000E+00  0.00000000E+00  0.00000000E+00
  0.00000000E+00  0.00000000E+00  0.00000000E+00
  0.00000000E+00  0.00000000E+00  0.00000000E+00
  0.00000000E+00  0.00000000E+00  0.00000000E+00
  0.00000000E+00  0.00000000E+00  0.00000000E+00
  0.00000000E+00  0.00000000E+00  0.00000000E+00
  0.00000000E+00  0.00000000E+00  0.00000000E+00
  0.00000000E+00  0.00000000E+00  0.00000000E+00
  0.00000000E+00  0.00000000E+00  0.00000000E+00
  0.00000000E+00  0.00000000E+00  0.00000000E+00
  0.00000000E+00  0.00000000E+00  0.00000000E+00
  0.00000000E+00  0.00000000E+00  0.00000000E+00
  0.00000000E+00  0.00000000E+00  0.00000000E+00
  0.00000000E+00  0.00000000E+00  0.00000000E+00
  0.00000000E+00  0.00000000E+00  0.00000000E+00
  0.00000000E+00  0.00000000E+00  0.00000000E+00
  0.00000000E+00  0.00000000E+00  0.00000000E+00
  0.00000000E+00  0.00000000E+00  0.00000000E+00
  0.00000000E+00  0.00000000E+00  0.00000000E+00
  0.00000000E+00  0.00000000E+00  0.00000000E+00
  0.00000000E+00  0.00000000E+00  0.00000000E+00
  0.00000000E+00  0.00000000E+00  0.00000000E+00
  0.00000000E+00  0.00000000E+00  0.00000000E+00
  0.00000000E+00  0.00000000E+00  0.00000000E+00
  0.00000000E+00  0.00000000E+00  0.00000000E+00
  0.00000000E+00  0.00000000E+00  0.00000000E+00
  0.00000000E+00  0.00000000E+00  0.00000000E+00
  0.00000000E+00  0.00000000E+00  0.00000000E+00
  0.00000000E+00  0.00000000E+00  0.00000000E+00
  0.00000000E+00  0.00000000E+00  0.00000000E+00
  0.00000000E+00  0.00000000E+00  0.00000000E+00
  0.00000000E+00  0.00000000E+00  0.00000000E+00
  0.00000000E+00  0.00000000E+00  0.00000000E+00
  0.00000000E+00  0.00000000E+00  0.00000000E+00
  0.00000000E+00  0.00000000E+00  0.00000000E+00
  0.00000000E+00  0.00000000E+00  0.00000000E+00
  0.00000000E+00  0.00000000E+00  0.00000000E+00
  0.00000000E+00  0.00000000E+00  0.00000000E+00
  0.00000000E+00  0.00000000E+00  0.00000000E+00
  0.00000000E+00  0.00000000E+00  0.00000000E+00
  0.00000000E+00  0.00000000E+00  0.00000000E+00
  0.00000000E+00  0.00000000E+00  0.00000000E+00
  0.00000000E+00  0.00000000E+00  0.00000000E+00
  0.00000000E+00  0.00000000E+00  0.00000000E+00
  0.00000000E+00  0.00000000E+00  0.00000000E+00
  0.00000000E+00  0.00000000E+00  0.00000000E+00
  0.00000000E+00  0.00000000E+00  0.00000000E+00
  0.00000000E+00  0.00000000E+00  0.00000000E+00
  0.00000000E+00  0.00000000E+00  0.00000000E+00
  0.00000000E+00  0.00000000E+00  0.00000000E+00
  0.00000000E+00  0.00000000E+00  0.00000000E+00
  0.00000000E+00  0.00000000E+00  0.00000000E+00
  0.00000000E+00  0.00000000E+00  0.00000000E+00
  0.00000000E+00  0.00000000E+00  0.00000000E+00
  0.00000000E+00  0.00000000E+00  0.00000000E+00
  0.00000000E+00  0.00000000E+00  0.00000000E+00
  0.00000000E+00  0.00000000E+00  0.00000000E+00
  0.00000000E+00  0.00000000E+00  0.00000000E+00
  0.00000000E+00  0.00000000E+00  0.00000000E+00
  0.00000000E+00  0.00000000E+00  0.00000000E+00
  0.00000000E+00  0.00000000E+00  0.00000000E+00
  0.00000000E+00  0.00000000E+00  0.00000000E+00
  0.00000000E+00  0.00000000E+00  0.00000000E+00
  0.00000000E+00  0.00000000E+00  0.00000000E+00
  0.00000000E+00  0.00000000E+00  0.00000000E+00
  0.00000000E+00  0.00000000E+00  0.00000000E+00
  0.00000000E+00  0.00000000E+00  0.00000000E+00
  0.00000000E+00  0.00000000E+00  0.00000000E+00
