combine
1.000
11.0985002518  0.0000000000000000  0.0000000000000000
0.0000000000000000  14.4173002243  0.0000000000000000
0.0000000000000000  0.0000000000000000  26.7964000702
Pt  H  C  O  K  
96  166  6  81  4  
Direct
  0.0000000000000000  0.0000000000000000  0.0018699899937576
  0.1249999521128992  0.1666699702868031  0.0018699899937576
  0.2499999943280624  0.0000000000000000  0.0018699899937576
  0.3749999464409617  0.1666699702868031  0.0018699899937576
  0.4999999886561249  0.0000000000000000  0.0018699899937576
  0.6250000308712881  0.1666699702868031  0.0018699899937576
  0.7499999829841874  0.0000000000000000  0.0018699899937576
  0.8749999350970866  0.1666699702868031  0.0018699899937576
  0.0000000000000000  0.3333300219343480  0.0018699899937576
  0.1249999521128992  0.4999999922211510  0.0018699899937576
  0.2499999943280624  0.3333300219343480  0.0018699899937576
  0.3749999464409617  0.4999999922211510  0.0018699899937576
  0.4999999886561249  0.3333300219343480  0.0018699899937576
  0.6250000308712881  0.4999999922211510  0.0018699899937576
  0.7499999829841874  0.3333300219343480  0.0018699899937576
  0.8749999350970866  0.4999999922211510  0.0018699899937576
  0.0000000000000000  0.6666699625079541  0.0018699899937576
  0.1249999521128992  0.8333300141554991  0.0018699899937576
  0.2499999943280624  0.6666699625079541  0.0018699899937576
  0.3749999464409617  0.8333300141554991  0.0018699899937576
  0.4999999886561249  0.6666699625079541  0.0018699899937576
  0.6250000308712881  0.8333300141554991  0.0018699899937576
  0.7499999829841874  0.6666699625079541  0.0018699899937576
  0.8749999350970866  0.8333300141554991  0.0018699899937576
  0.0000000000000000  0.2222199683821562  0.0864100026098289
  0.1249999521128992  0.0555599860957249  0.0864100026098289
  0.2499999943280624  0.2222199683821562  0.0864100026098289
  0.3749999464409617  0.0555599860957249  0.0864100026098289
  0.4999999886561249  0.2222199683821562  0.0864100026098289
  0.6250000308712881  0.0555599860957249  0.0864100026098289
  0.7499999829841874  0.2222199683821562  0.0864100026098289
  0.8749999350970866  0.0555599860957249  0.0864100026098289
  0.0000000000000000  0.5555599783168760  0.0864100026098289
  0.1249999521128992  0.3888900080300730  0.0864100026098289
  0.2499999943280624  0.5555599783168760  0.0864100026098289
  0.3749999464409617  0.3888900080300730  0.0864100026098289
  0.4999999886561249  0.5555599783168760  0.0864100026098289
  0.6250000308712881  0.3888900080300730  0.0864100026098289
  0.7499999829841874  0.5555599783168760  0.0864100026098289
  0.8749999350970866  0.3888900080300730  0.0864100026098289
  0.0000000000000000  0.8888900002512240  0.0864100026098289
  0.1249999521128992  0.7222199606033073  0.0864100026098289
  0.2499999943280624  0.8888900002512240  0.0864100026098289
  0.3749999464409617  0.7222199606033073  0.0864100026098289
  0.4999999886561249  0.8888900002512240  0.0864100026098289
  0.6250000308712881  0.7222199606033073  0.0864100026098289
  0.7499999829841874  0.8888900002512240  0.0864100026098289
  0.8749999350970866  0.7222199606033073  0.0864100026098289
  0.8774506675278571  0.2801754484582167  0.1723143073436557
  -0.0074139037197080  0.4461209038956727  0.1744268163579898
  0.1238934173360037  0.6121805399754396  0.1705382642193807
  0.1221864906458928  0.9461592032888606  0.1696247856649528
  0.0009358774396852  0.1115133039603508  0.1688678982940049
  0.7527144955774644  0.7757062755029779  0.1734551645080476
  0.1146351055399270  0.2759524041744207  0.1723215005934764
  -0.0017869222552645  0.7771100268978395  0.1696113054549598
  0.2497687193231731  0.7833717512495207  0.1718212303681894
  0.8830176629234718  0.9417573752203131  0.1743777811705557
  0.3799622860499614  0.9484179121243133  0.1731658475893686
  0.8660953002403209  0.6105598041624601  0.1757547809728924
  0.2507390771242871  0.1123226226482098  0.1723183039775214
  0.4994004377484317  0.1173216992214036  0.1715842078695194
  0.6272509276981768  0.9443481778129541  0.1707505174431384
  0.2488346957105395  0.4414001685540248  0.1683007992747266
  0.7439429225278346  0.1149754437731758  0.1740712954270049
  0.7470335673196331  0.4444854731400407  0.1738217488766294
  0.6235054902735790  0.2837031210466169  0.1720903011344531
  0.3760377406238407  0.2841839763518505  0.1727201058155218
  0.3685391793577361  0.6208506336167799  0.1733927091522679
  0.4972370690269591  0.7761432239886161  0.1720534624808499
  0.4909767676507681  0.4548418192850936  0.1737497994992896
  0.6217976224653203  0.6116081525886463  0.1786009879633910
  -0.0100670452101742  0.0143000705189248  0.2556202436579338
  0.1153845817314198  0.5217221786657499  0.2603855562583382
  0.8685245007258215  0.8483465825442948  0.2606764037818706
  0.2324326655560170  0.3469831189800924  0.2546274014168006
  0.8708495024751178  0.1754604953593399  0.2559607407797896
  0.6267183381080615  0.8498826317182362  0.2566986518741232
  0.7482066099113912  0.3443058805512954  0.2601796233126610
  0.2345786022285091  0.6909323255133679  0.2563020135394157
  0.1198858341048562  0.8520581585722261  0.2549047064122677
  0.7499389684340557  0.6826981827853204  0.2646534254385414
  -0.0024944404353651  0.6858677153808183  0.2622086808635843
  -0.0059742631612993  0.3481156506639704  0.2630748891131698
  0.2471639299242350  0.0150414817494396  0.2567515469755654
  0.8709822004673318  0.5139031412422247  0.2629803016837629
  0.4909995491973071  0.0163675683400328  0.2583273294123622
  0.3662066125412601  0.8456156523709994  0.2607451083091644
  0.6258520300950992  0.1790922140573905  0.2606690352547743
  0.3778322473182718  0.1833928996042929  0.2612411345688552
  0.1171052110747315  0.1800775614580125  0.2602576608809359
  0.7411651598391326  0.0117387813992212  0.2599489255516258
  0.3563285735078132  0.5147758017614802  0.2629216959719551
  0.6260969113257465  0.5095362246614155  0.2627934920120575
  0.4875840982679032  0.3521064986039350  0.2618266805473782
  0.4914331199763157  0.6829264551420583  0.2641306296016640
  0.4157375341458114  0.7282413313488287  0.5002845004881263
  0.4084996790503024  0.7872002569226543  0.4504485498603735
  0.1741497379239623  0.9430930646420775  0.4607847807001279
  0.2557441815203509  -0.0966650846634267  0.4208621216228851
  0.7083282091672709  0.6732946394664752  0.8831052986373545
  0.6174446014441095  0.6272421166383160  0.9168179785433632
  0.8456624659154111  0.6097348494681024  0.7498274304519306
  0.8714154138196691  0.6380219234386246  0.8059881925564489
  0.2668700366357728  0.2233964605295148  0.7704179382908399
  0.2491978893951409  0.1447030947086553  0.8130613393039026
  0.2203357365877786  0.5531795846255415  0.9143512631776113
  0.0834538998681180  0.5280048660753753  0.9017378614589274
  0.2690303256077996  0.8104160893040770  0.8301746883246158
  0.3411697482536791  0.8819649173128997  0.7927954931910911
  0.4275812447389325  0.1144386416687877  0.3475502157566678
  0.5189766810849819  0.1558087226770688  0.3853298361141738
  0.5702837199984285  0.1508124384297178  0.9216520312915177
  0.5618980532246762  0.2258370232529500  0.8794478178696676
  0.6758368775171666  0.1186727140367274  0.8495306895427350
  0.8066542047650107  0.1329523897594403  0.8243469628133198
  0.1158402296464775  0.2842755918748299  0.8634117975358068
  0.1605496143599231  0.3858312148847605  0.8826581966584091
  0.4129805593378830  0.4134159142468292  0.5834026509659930
  0.5229716172469925  0.4071913876569795  0.6217521443534578
  0.7146555140649403  0.2752076269253556  0.5223967656411961
  0.8529316461802776  0.2630266004316435  0.5390845464299781
  0.7861539337880289  0.8149621559448710  0.3960571040847573
  0.7561737805915612  0.7833574446458716  0.3390807456298806
  0.3810230084658653  0.8157447044195836  0.6990030731116860
  0.3728152870320413  0.9215996037527976  0.7124747653074395
  0.7436532791051137  0.8227936709333494  0.4829731200756552
  0.7410400857869176  0.9360447229609683  0.4825946431431780
  0.6888733240205159  0.1640788346637108  0.4129464086971071
  0.6756819839404672  0.2661057730929144  0.4077599525038905
  -0.1263687461441050  0.4358223634831102  0.8305492730029198
  0.0064338646826105  0.4064228639578389  0.8167793687906617
  1.1374002011535458  0.6326623413811072  0.7637351957384496
  1.2375351826452798  0.5855147404554975  0.7948513678069231
  0.3212815315314060  0.1965884107985004  0.3831897357592841
  0.2155504326552598  0.2089350317629426  0.3400484233191250
  0.5577949028469832  0.8322095572635234  0.9060121926004218
  0.4377224503294577  0.8554991799859567  0.8809781616431809
  0.5074754428452208  0.3782743845208920  0.8280340634664360
  0.3949725937690589  0.3631873993838698  0.7842520736571145
  0.8263306075983199  0.0015408276622108  0.8699595766419682
  0.8634869021375858  -0.0678618909628417  0.9161252878217971
  0.1737653845966460  0.7761105289630104  0.7500135386749358
  0.0383759555558800  0.7486648334621933  0.7355477512077946
  0.3520153505394905  0.5585704597471542  0.5207428975587709
  0.4167323738673503  0.5424555478783976  0.4680609347166829
  -0.0391871959753718  0.4658503156769835  0.3521795245061649
  0.0254930767203535  0.4612696429731794  0.4083186816040971
  -0.0591889318643264  0.2004297247850577  0.8390600750398554
  0.8996961649282790  0.2963362986711637  0.8057202972876369
  -0.2028385211988341  0.4457462364186858  0.9156801104670499
  -0.2729930740785100  0.5263652408381789  0.8827289975269971
  0.7455562329836410  0.7216340247853266  0.6113658433812795
  0.6231253406764012  0.6749815993217612  0.6101768146230683
  0.4813302001442587  -0.1442601281059875  0.6402627529912061
  0.5857424795612058  0.8257459903300323  0.6050504262895561
  0.1489927437296596  0.6989497551709106  0.6674697934253713
  0.1280613503405101  0.6058070643059016  0.6328279325236031
  0.5445625326016267  0.2380781266533315  0.6152286675714256
  0.5520965220869573  0.1289463608981800  0.6256391697720638
  -0.0890938423269965  0.1419579749855261  0.5765121695574348
  0.0182321026002754  0.2114365663040083  0.5887162518089042
  0.8952069875016336  -0.0749583994150660  0.3359847792992293
  0.9993973414562102  0.9716054506161970  0.3685582351520059
  0.9233599166372007  0.8683340299385237  0.7451464693052319
  0.8602085387754642  0.7656675727536199  0.7560694414034692
  0.9066734014055626  0.7577579996625500  0.6694071196394896
  -0.0100625572704643  0.7026579479787354  0.6305742267257426
  0.3460876216024811  0.3937395424929925  0.5098586319620517
  0.4325595644349688  0.3128883093241559  0.5271956704964422
  0.6340879706660042  0.9080465579217438  0.7752636671559049
  0.6795230163261795  1.0101860844690242  0.7798086524853127
  0.6802636540442052  0.7386364531794333  0.7811034339525660
  0.5651616511143214  0.7858670402176569  0.8107876569868604
  1.1718911790618372  0.0406399940685461  0.3974983496326229
  1.1622888308091788  0.0401252770213494  0.3387266807825449
  0.6786455508687705  0.7059500639894710  0.5296041839173092
  0.6172079919166579  0.7300475032530602  0.4815495265668233
  0.8098288156584316  0.0107111003931041  0.3772318349598575
  0.7583541332474144  0.0862468421864589  0.3410857718333724
  0.3764928196512238  0.6065873032011866  0.8630673672624931
  0.3966116217897187  0.6502282119504909  0.9153096690057344
  0.8527081059321620  0.7333709390666004  0.9197210918196318
  0.8306186587331820  0.8110760854373311  0.8773991314059568
  0.0649553000445335  0.5899642698335343  0.8378558241958816
  -0.0012673658945693  0.6611752184527199  0.8725166378934981
  -0.1186774579823414  0.0009421559438088  0.5943464925876937
  0.7715799965595491  0.0611610325776380  0.6176290720597707
  0.2279465814572285  0.3344636311569995  0.6600382305072815
  0.3341562305410156  0.4069476381098850  0.6504790877556824
  0.5206874351570846  0.5917320721268543  0.8289141644627720
  0.4708041053972632  0.5037816105444005  0.8001531681617399
  0.6189766501997278  0.3335199353271056  0.7544977208182539
  0.7315089371722350  0.2644662521887052  0.7508054763846432
  0.2133916156749102  0.7190779413351194  0.8922182227674718
  0.1315262730893079  0.7771478810585706  0.9169659475761293
  0.2667723787382723  0.1413373482620208  0.9018869292997395
  0.4033075600619144  0.1500218224251493  0.8815371207668229
  1.0009278167019304  0.4949857994267086  0.6607538113446240
  1.1433271695013036  0.4731460514710342  0.6494368079335111
  0.1840422577517826  0.1800270346750041  0.6441322985730140
  0.0797089352281200  0.1872820175617240  0.6768224256350505
  0.0124033030929268  0.4867864138232407  0.5680803143191160
  -0.1090023548905894  0.4601997108458036  0.5368338377996397
  0.2358263204594254  0.3663452917209707  0.7413446298218270
  0.2077553937006975  0.3514849256422445  0.8036454182944011
  0.9211773087036584  0.4622993239168403  0.7477576566034024
  0.8235596459276190  0.4611090885376063  0.7110534904869327
  0.5821495625007650  0.2010076018057469  0.4822774543686510
  0.5635409233860788  0.1988827786264136  0.5443643014392092
  0.0961633257995292  0.4958596915288349  0.4858811938204811
  0.2086491416193311  0.5041895909296661  0.4544570015971219
  0.4967502964020610  0.5568726485883948  0.6345004053178066
  0.4858910081860290  0.6511027533489385  0.6695817547915153
  0.3273691623253994  1.0517306709159697  0.7555314502120319
  0.4619276189022503  0.9999480805082537  0.7635904432944705
  0.1548509165750812  0.9551155099684123  0.8570016636726755
  0.0071276120201169  0.9665103033932664  0.8630038402030545
  0.5077436859710898  0.7193719174703224  0.7457668968535760
  0.3842764780230827  0.6559441385954187  0.7403493557801598
  0.0685508890335528  0.9722843071044253  0.7799346669906624
  0.9987177545364571  1.0277811423823247  0.7414579139604445
  0.0140577182826748  0.1551499352721987  0.5002306132422195
  0.0212638176101068  0.0520624206905869  0.4825363957705492
  0.1936818850052621  0.7836190996396160  0.3870171621684776
  0.2927686974078336  0.8062716293517701  0.3483814323694087
  0.6989458435379048  0.3351471962868557  0.6660878577622602
  0.7319940381658693  0.3360447777271165  0.6098161417425813
  0.3890818278892819  0.6519015345091305  0.5933534112808657
  0.2616245147833443  0.6763791696217845  0.5776395122124504
  1.0142389457597543  0.9021806872813130  0.5217623440265217
  0.9331473141175389  0.9216133796190770  0.4754090142827502
  0.6333493015202636  0.0243046439380791  0.6882712614748010
  0.6056766198667051  -0.0168180048780092  0.6386759460250239
  0.3038183776635160  -0.0003734833301816  0.8851579950053704
  0.2705203908440749  0.9112874954671273  0.9236296352256721
  0.0640908716458908  0.1137593226945256  0.8637738775642652
  1.0190739598231451  0.1640490994502290  0.9142917994848829
  -0.0459343674040389  0.8404543074907299  0.6071747370832027
  0.0542288313686697  0.9147765211388836  0.6069434255046413
  0.1108209148889754  0.9524486532059240  0.6833984605777428
  0.2308793788047549  0.8995452389373879  0.6644762596227018
  0.5708756828358339  0.0029600956376056  0.5021549914036482
  0.6955909685318010  0.0449555184616036  0.5219338730486275
  -0.1946712637547214  0.3091685753472209  0.4655187117904117
  0.8595368398043540  0.3840030299964710  0.4238769766141659
  -0.0129028058522389  0.1701680375681514  0.7603167266545419
  0.1085806335053743  0.1375625195455964  0.7465871021252700
  1.0561227682451040  -0.2673886966578150  0.3427555888044124
  1.0192183748579369  -0.1828283151138985  0.3714549220501210
  0.3829067098422391  -0.0613664867995739  0.4988606322782159
  0.4537115031630800  -0.0833174080592001  0.5500801509525299
  0.3644027152266879  0.0875903023557459  0.6191969829205554
  0.2300962142957853  1.0315016673048474  0.6255816251542808
  0.5676512237478417  0.3807624772596101  0.9123275992579079
  0.6570300850619294  0.3834555170379286  0.8744954714331185
  0.5053889741174984  0.3433083443082920  0.3646329563711083
  0.6998903464493049  0.4413814414764306  0.3523722588356446
  0.6784866934862414  0.6064621198192829  0.3484142948060678
  0.2937585708547634  0.5845203182837351  0.3510197152587070
  0.4746479009310860  0.6785344872344138  0.3625755274196235
  0.2864532807110027  0.3439657007170894  0.3682281699090318
  0.4980030673156577  0.4055527315956887  0.3421868691084803
  0.6096599684270505  0.4683246153756105  0.3407284874304332
  0.3820656883989602  0.4553079961140031  0.3472016343548553
  0.5982702960269891  0.5689900890094208  0.3388381927913287
  0.3779970525404642  0.5536508743742663  0.3389854613344785
  0.4855819855142998  0.6173793726232932  0.3382133267699178
  0.4611696660249113  0.7476470435520359  0.4708905415071981
  0.2512548908171391  -0.0421140705162419  0.4447522431960410
  0.6480101553751446  0.6210488929757121  0.8813662807701067
  0.8184946282743660  0.6532783246495303  0.7760146601567289
  0.2342772538098831  0.1569119104898045  0.7759188066878573
  0.1610155955269877  0.5019975055316849  0.9179201771940261
  0.3097143954420791  0.8184423920306418  0.7987670168166827
  0.4422289434830610  0.1190620940186007  0.3843562775939375
  0.5554380772393288  0.1560198671391137  0.8853757808864855
  0.7481576444577109  0.0847058960346575  0.8340122294245622
  0.1457711063832802  0.3490972480212999  0.8532479487469210
  0.4441353118319348  0.4373128364402996  0.6151078638182527
  0.7860169330072474  0.3130967155134738  0.5301482460361687
  0.7298909043576582  0.7773951353117623  0.3762509680026863
  0.3630985307448565  0.8796299103784350  0.6830408039568947
  0.7739222482070890  0.8790186440551364  0.4678709039667814
  0.6255923234919901  0.2087235036715140  0.4093707598058759
  -0.0805672670913332  0.4007397050983252  0.8043888300119383
  1.1539329154966609  0.5736825232826542  0.7838976148688028
  0.2475468422910938  0.2327283263994671  0.3714290818440417
  0.5124021510453789  0.8217572092680223  0.8739351286497349
  0.4838063482702673  0.3892843278341663  0.7909301053192483
  0.8678965928516139  -0.0592122790063802  0.8800554213334667
  0.1228779338162217  0.7307545184390809  0.7312606281838420
  0.3606343476138462  0.5134789812812847  0.4932909265711430
  -0.0512915546861996  0.4679691734398614  0.3893112466924792
  -0.1089670379927107  0.2252720133292286  0.8090787834971365
  -0.2297396304592117  0.4652226615975638  0.8821475376719724
  0.6687779192234734  0.7272835388436324  0.5924654172541434
  0.5312782580460543  0.8797992809098112  0.6135466141395496
  0.1421594339689377  0.6774776509084061  0.6320395695851242
  0.5121170416226453  0.1776403747411280  0.6069505537494615
  0.9546816638474710  0.1981339165418326  0.5631942347540626
  0.9263095231477462  -0.0702125664341674  0.3715072895247193
  0.8974371706920141  0.8097813129966118  0.7279053840964100
  -0.0970387209411767  0.7355930705337667  0.6352869977721952
  0.3554660226691584  0.3466547418965646  0.5350172910779727
  0.6148655063456201  0.9718069350796408  0.7654140406460544
  0.6065152401387091  0.7766068351152495  0.7781381988615896
  1.1154443557355598  0.0479259095912701  0.3689263126278669
  0.6947854699061150  0.7106011728626134  0.4931993189860358
  0.7497121271092928  0.0618174232092245  0.3739719862051308
  0.3346567808022186  0.6303614638670156  0.8921500372054108
  0.8363590364197679  0.7411256878309744  0.8835211124470757
  -0.0038477704402515  0.5968557872018511  0.8587846950043033
  0.8228822048563554  0.0552343518350131  0.5877701741181104
  0.2595913232270041  0.3979973021043611  0.6692281639481491
  0.4493150124307320  0.5685125487007023  0.8097495049355729
  0.7046025632816213  0.3256771927857925  0.7411816562623729
  0.1363820789529209  0.7489493932990680  0.8841407899021255
  0.3217782411475639  0.1243505099226749  0.8723603075360984
  1.0689763151805887  0.5012827469749731  0.6356723890961397
  0.1227186250213497  0.2248441504836174  0.6520262166420773
  -0.0250479829700336  0.4825221929120066  0.5330157479617521
  0.2622218016373880  0.3426424816952752  0.7744491841043449
  0.9053200166905815  0.4835503849083843  0.7132980411072560
  0.5535831170525540  0.2308918648853082  0.5119052418184625
  0.1257306917187919  0.5001846892836089  0.4497310275682137
  0.5079159965496916  0.6239888224244005  0.6357635290885866
  0.3726167337725915  0.9947674895142401  0.7591909924618527
  0.0824811128468942  0.9946639368603607  0.8473346806704298
  0.4449722580038730  0.6903578585486001  0.7221134406266377
  1.0260064491193923  0.9615369901387397  0.7489472242399690
  0.0468140443314163  0.1161663150897807  0.4732261473884374
  0.2826167884252009  0.8028302601891597  0.3848044815343377
  0.6655157858380073  0.3497984011666692  0.6336011902875460
  0.3443815039135683  0.6686850455642835  0.5613273944632420
  1.0188423625494880  0.9257534460581039  0.4865120258373085
  0.6391117313485305  0.0397748826325660  0.6528667755768967
  0.3098137594349593  -0.0710693244962060  0.8911882438289690
  1.0413002473307742  0.1728138883173579  0.8793937939636128
  -0.0227844692312358  0.9043772176585206  0.5891632611373445
  0.1583921724302249  0.9390542802376398  0.6535923897992945
  0.6492024599928657  0.0297261822763220  0.4911711501104546
  -0.1829917538786932  0.3185607041572857  0.4291113987205886
  0.0273304756334808  0.1384239223954218  0.7308076521173480
  1.0631341082040664  -0.2419065359630697  0.3765717223867633
  0.4426204479747867  -0.0407213453119656  0.5230747286866950
  0.2796563427744770  0.0891595645718345  0.6137808521000054
  0.5707881493693331  0.3564067005651528  0.8777848321184750
  0.2794622860865338  0.4179799740968900  0.3659362748433100
  0.9123940764300734  0.6475719965353847  0.4321961777052077
  1.0022428599662339  0.2249925497238853  0.3812992624469254
  0.5538345230026099  0.9392379504781706  0.3792636411822369
  0.2986606891559435  0.1230608878082195  0.5027692746900926
