combine
1.000
11.0985002518  0.0000000000000000  0.0000000000000000
0.0000000000000000  14.4173002243  0.0000000000000000
0.0000000000000000  0.0000000000000000  26.7964000702
Pt  H  C  O  K  
96  166  6  81  4  
Direct
  0.0000000000000000  0.0000000000000000  0.0018699899937576
  0.1249999521128992  0.1666699702868031  0.0018699899937576
  0.2499999943280624  0.0000000000000000  0.0018699899937576
  0.3749999464409617  0.1666699702868031  0.0018699899937576
  0.4999999886561249  0.0000000000000000  0.0018699899937576
  0.6250000308712881  0.1666699702868031  0.0018699899937576
  0.7499999829841874  0.0000000000000000  0.0018699899937576
  0.8749999350970866  0.1666699702868031  0.0018699899937576
  0.0000000000000000  0.3333300219343480  0.0018699899937576
  0.1249999521128992  0.4999999922211510  0.0018699899937576
  0.2499999943280624  0.3333300219343480  0.0018699899937576
  0.3749999464409617  0.4999999922211510  0.0018699899937576
  0.4999999886561249  0.3333300219343480  0.0018699899937576
  0.6250000308712881  0.4999999922211510  0.0018699899937576
  0.7499999829841874  0.3333300219343480  0.0018699899937576
  0.8749999350970866  0.4999999922211510  0.0018699899937576
  0.0000000000000000  0.6666699625079541  0.0018699899937576
  0.1249999521128992  0.8333300141554991  0.0018699899937576
  0.2499999943280624  0.6666699625079541  0.0018699899937576
  0.3749999464409617  0.8333300141554991  0.0018699899937576
  0.4999999886561249  0.6666699625079541  0.0018699899937576
  0.6250000308712881  0.8333300141554991  0.0018699899937576
  0.7499999829841874  0.6666699625079541  0.0018699899937576
  0.8749999350970866  0.8333300141554991  0.0018699899937576
  0.0000000000000000  0.2222199683821562  0.0864100026098289
  0.1249999521128992  0.0555599860957249  0.0864100026098289
  0.2499999943280624  0.2222199683821562  0.0864100026098289
  0.3749999464409617  0.0555599860957249  0.0864100026098289
  0.4999999886561249  0.2222199683821562  0.0864100026098289
  0.6250000308712881  0.0555599860957249  0.0864100026098289
  0.7499999829841874  0.2222199683821562  0.0864100026098289
  0.8749999350970866  0.0555599860957249  0.0864100026098289
  0.0000000000000000  0.5555599783168760  0.0864100026098289
  0.1249999521128992  0.3888900080300730  0.0864100026098289
  0.2499999943280624  0.5555599783168760  0.0864100026098289
  0.3749999464409617  0.3888900080300730  0.0864100026098289
  0.4999999886561249  0.5555599783168760  0.0864100026098289
  0.6250000308712881  0.3888900080300730  0.0864100026098289
  0.7499999829841874  0.5555599783168760  0.0864100026098289
  0.8749999350970866  0.3888900080300730  0.0864100026098289
  0.0000000000000000  0.8888900002512240  0.0864100026098289
  0.1249999521128992  0.7222199606033073  0.0864100026098289
  0.2499999943280624  0.8888900002512240  0.0864100026098289
  0.3749999464409617  0.7222199606033073  0.0864100026098289
  0.4999999886561249  0.8888900002512240  0.0864100026098289
  0.6250000308712881  0.7222199606033073  0.0864100026098289
  0.7499999829841874  0.8888900002512240  0.0864100026098289
  0.8749999350970866  0.7222199606033073  0.0864100026098289
  0.8723363792355452  0.2821469097344474  0.1722825006383607
  0.0026594924836996  0.4479622437503603  0.1745973219254552
  0.1270866269044995  0.6248648859178075  0.1724354235119282
  0.1272669211293589  0.9494285206275227  0.1732222439447015
  -0.0044815611453388  0.1139925669044459  0.1714469711888322
  0.7528711586815373  0.7817518675863758  0.1703921698264868
  0.1296871793525943  0.2862103138453821  0.1728557364857043
  -0.0038404799867520  0.7832183495747556  0.1761082321780986
  0.2471870793042567  0.7904033887907250  0.1707501581709983
  0.8723720347107015  0.9473344537404981  0.1748694685377201
  0.3827259796215343  0.9499606907412496  0.1708547429582331
  0.8802752327023198  0.6141698951635668  0.1736068973710198
  0.2529537570758430  0.1177633862225016  0.1719603161069541
  0.5025414040059535  0.1197435926173078  0.1724120154123941
  0.6256356431378064  0.9495639725477587  0.1740583978549768
  0.2534516238123062  0.4582584984645266  0.1712318652274008
  0.7516664290787397  0.1121596340120962  0.1708590051053760
  0.7510679327729958  0.4475079462329262  0.1720523558172712
  0.6203400078838028  0.2791997010588326  0.1714050100262486
  0.3769427149061427  0.2808620178121181  0.1710657018663398
  0.3792125067184116  0.6197403674815836  0.1712986437049318
  0.5069541566922505  0.7815063221413254  0.1717619888844139
  0.5000566006474522  0.4476368275055010  0.1722831976946799
  0.6245415886057060  0.6156580024559321  0.1714690883836213
  0.0021400836114004  0.0174642192007363  0.2562298635493075
  0.1244133530542612  0.5192403142151719  0.2564594484257791
  0.8743398763924149  0.8539250648640597  0.2602738079976705
  0.2439121748779487  0.3522878537369573  0.2582032734499459
  0.8772036614155171  0.1834840376384296  0.2626004277315404
  0.6319404389671935  0.8518365058390317  0.2609223495687201
  0.7574235696518219  0.3534769873079642  0.2546438253916199
  0.2470105696177626  0.6844391456084218  0.2517094257075577
  0.1365622502963126  0.8478314039751838  0.2593937497981281
  0.7603310039778937  0.6916627025767693  0.2556989788199135
  -0.0009353371054180  0.6872921259695211  0.2602301665720709
  -0.0008261639944111  0.3474265848232483  0.2616805979284539
  0.2566819201844837  0.0226309363836419  0.2595649027435978
  0.8858430824385918  0.5150132157049194  0.2623623766021616
  0.5033692768708938  0.0203183027156683  0.2635254102491572
  0.3735663606015219  0.8563251648385111  0.2548022791947008
  0.6299658136301849  0.1814832037963639  0.2613755373875385
  0.3812595476324590  0.1918321543473499  0.2606106303050086
  0.1246237787016022  0.1871107701810363  0.2604607357262788
  0.7510051078160935  0.0173579765494653  0.2614122398064240
  0.3822319959682824  0.5154208526763751  0.2545989154224880
  0.6386405602640272  0.5250058017133027  0.2592707961143732
  0.5042658436748984  0.3572348259155479  0.2604072389059505
  0.5124349426380935  0.6903736399359930  0.2625938183288021
  0.3309415133458509  0.6733901078397896  0.4980849429824318
  0.3315149755664756  0.6797279776405439  0.4381359810774154
  0.1513340582956331  0.8908266450228256  0.4564505597452334
  0.2391338641876013  -0.1607740601456846  0.4210526797160105
  0.7249465820388746  0.7033315912301696  0.8808728008487232
  0.6216282034215450  0.6506952263148482  0.9080783959021695
  0.8187064931341806  0.5801333726131859  0.7670541212160140
  0.8554109558415571  0.6348881285118984  0.8182494552835041
  0.3522579405506555  0.1732722443547013  0.7778139376967601
  0.2693280414455286  0.1077332245521310  0.8139846750331490
  0.1964534532534145  0.5383957683365006  0.9066469064483806
  0.0527561211709698  0.5467445118548692  0.9118549339682861
  0.2456288738974320  0.8134197635514241  0.8224818649132635
  0.3331503521117936  0.8621275554871433  0.7846693817048636
  0.4805135934411566  0.1543402996317945  0.3531373544584256
  0.5321307079523798  0.1934417306507474  0.4029788839960174
  0.5993965517477090  0.1468680340256151  0.9169881017646936
  0.5295087443771408  0.2331036360910056  0.8888155695319202
  0.6264870595080919  0.1616965510068781  0.8362941394624708
  0.7409141964984280  0.1764835151113417  0.8034556002559081
  0.1082210009415644  0.2251416622461019  0.8765764298287955
  0.1772989444389896  0.2988077584969044  0.9063575172811908
  0.4153622354292732  0.3476069812192126  0.6192411160838499
  0.4888006006685596  0.3891672260208077  0.6600311318597205
  0.7044730209319902  0.2756535447185610  0.5878087121231146
  0.8390716178782508  0.2534075426439547  0.5900733219229767
  0.7765225162744182  0.7866124911226664  0.3780460120636044
  0.6650225343467429  0.7901404193206428  0.3435004060204457
  0.4073086308906327  0.7908205132180754  0.6893105206300250
  0.4052790669505546  0.8934721752543258  0.7055996194513781
  0.7194409796409209  0.8390126146788559  0.4902708532968229
  0.7226886203655453  0.9381523310170720  0.5107775386784574
  0.7121049146093600  0.1755134945608625  0.3984369417395518
  0.7348835107768015  0.2760719870348161  0.4142697362451025
  -0.1534589613874878  0.4182842858218137  0.8583759891941457
  -0.0112790556795904  0.4053828203874951  0.8485388320085002
  1.1263045653823949  0.6230378073462174  0.7558165033975339
  1.1734926561079919  0.5350992422213063  0.7858279374294636
  0.3263689720250748  0.2233131501120779  0.3921885304320119
  0.2747466870855327  0.2295042098466568  0.3426112771248634
  0.5491029689269605  0.8537633544145491  0.9119050188153732
  0.4532385412330077  0.8615203761079383  0.8732987153720062
  0.4313022267241608  0.3906803343046479  0.8334240660907297
  0.3410648248159550  0.3906715903513391  0.7836104319979754
  0.6597944296043394  -0.0357453291311357  0.8753985979514792
  0.7753583527832378  0.0108361636762396  0.9054944124671334
  0.1974446208661931  0.7522402477143788  0.7449283628885234
  0.0771417145358126  0.7427070761731256  0.7160262504453940
  0.2402079733761888  0.4774159294677649  0.5175846126854936
  0.2734422259897506  0.4680925793530574  0.4625884310962030
  -0.0532970978762707  0.5596759671828068  0.3412993572733944
  -0.0018825769271494  0.4972869305597124  0.3810501701329387
  -0.0701117662698434  0.1816152592970735  0.8347820568769797
  0.9209969371620463  0.2827582174940753  0.8187268086170298
  -0.2640928456098952  0.4600669226212251  0.9183967620064093
  -0.3077406208686680  0.5109580081979371  0.8712911143002554
  0.6957506029382347  0.7201534164004071  0.6184663825545096
  0.5749011393377387  0.6667816065727207  0.6073297348847402
  0.4991491091151286  -0.1138105545471269  0.6367020526191397
  0.5951124271794108  0.8353094153926254  0.6061629290929886
  0.1711993807894757  0.6772008198278358  0.6295227042702567
  0.0879975165871267  0.5930907943421955  0.6391133332438030
  0.5118759200621384  0.1969713497408895  0.7033082376896808
  0.5966769202015363  0.1256092532669671  0.6711595340338478
  -0.0648707329067486  0.1172108594056865  0.5924242641739866
  0.0306477384405910  0.1850208289970957  0.6120321577501210
  0.9583341958365048  -0.0533912341370677  0.3373899298045717
  1.0582293823794062  0.9793767337799587  0.3771682064315651
  0.9434074915574170  0.8381450077687275  0.7409969461973255
  0.8867628944643964  0.7394202112842242  0.7530163016389610
  0.8752817301080380  0.7516578153193144  0.6694093686542768
  -0.0942213976280625  0.6896719167046943  0.6264152636035307
  0.3271502780937568  0.3412481927516269  0.5303004532539038
  0.4245497947468903  0.2666570834683898  0.5425280581352170
  0.6760623569822497  0.9109320718496484  0.7743078535155316
  0.6679161313527699  1.0135979646570423  0.7847536734639836
  0.6962507718956665  0.7193662810405653  0.7895747342766883
  0.5968799392445494  0.7790617820712923  0.8160073444386665
  1.2253247589280736  -0.0045548032348885  0.3993810558307627
  1.2060424971679504  0.0453139162212126  0.3486335512242661
  0.6436158988185354  0.6990252675610991  0.5296931516067659
  0.5694983491012583  0.6936255250511396  0.4807947876411834
  0.8463347477310367  0.0239917019080314  0.3829871172252357
  0.8085043473459120  0.0843262048085031  0.3397026881167944
  0.3653584973467342  0.5765935040035289  0.8555809827528404
  0.3505838312315170  0.5840071984773283  0.9165832199010262
  0.8569475513105921  0.7776338361535607  0.9141644403399583
  0.7771570788765910  0.8428254480280116  0.8875393460164327
  0.0322455455854910  0.6037727277488696  0.8406613948957908
  -0.0121848016787734  0.6815112305381057  0.8768075205605271
  -0.1003669949837898  -0.0355189937043059  0.5961555742730321
  0.8144694813548302  0.0186564484276084  0.6361013446338196
  0.1523793519422335  0.2826033512593945  0.6808755983453946
  0.2442475720231077  0.3632299468019340  0.6949668763719502
  0.5319832704912026  0.5974369999441560  0.8233329302145821
  0.4642489984143895  0.5111860554362445  0.7986373996632253
  0.4652898995485879  0.3004620770953199  0.7767541871696144
  0.5566523586371974  0.2077841820170218  0.7769955860695806
  0.1744749813368653  0.6932293028728449  0.8723783193174844
  0.1946784078010521  0.7596884754220190  0.9159432917481745
  0.2423899433766916  0.0935291082672498  0.9114569161311117
  0.3631017992585455  0.1380766975737064  0.8938350195829582
  0.9992798713232715  0.5205706538350455  0.6902032515542286
  1.1046435766861060  0.4529381695536590  0.6776032243596996
  0.1986145221055876  0.1587686003751190  0.6507314275357382
  0.0841063038808877  0.1524608535927691  0.6896707191744083
  -0.0460758984725944  0.4637526570079196  0.6076741120688329
  -0.1472082188884057  0.4060180327544100  0.5824206144711257
  0.1565873032816432  0.3591505689166853  0.7574580793698573
  0.1785492117710779  0.3533553233436497  0.8203730630162935
  0.8847825981539614  0.4473557953124437  0.7664699213436810
  0.7858652245545916  0.4412567839558103  0.7254979273659911
  0.5946623387542481  0.1366652709346396  0.5629842919190079
  0.5228565529886670  0.1974249839302488  0.6025821359100003
  -0.0182195843413352  0.4517036635835329  0.5237750378196695
  0.0792669025580569  0.4417859870161128  0.4843105761408770
  0.4345365854199836  0.5237920088860919  0.6272324959646921
  0.4533061846517550  0.6207354341151978  0.6611466638237787
  0.3433578828708821  1.0189726705516589  0.7560709582452799
  0.4739458777907309  0.9754375024733735  0.7553484649271744
  0.1784698269731313  0.9460800117979270  0.8624305184785037
  0.0745035995621024  0.8801602334681293  0.8706778991834131
  0.5371139374108853  0.7194985788057728  0.7322810142740769
  0.4616362988475902  0.6441107140675416  0.7518823471667037
  0.0580239798341724  0.9229276700413617  0.7878179480637392
  0.9989480315146086  0.9953163997038649  0.7532345912631149
  0.0026238237004389  0.1369706437389445  0.5235929656126858
  0.0009089980872293  0.0455656584367130  0.4916390561003320
  0.1314432027123126  0.7541542628469408  0.3717132234817264
  0.2396054303885527  0.7512914243156024  0.3324062583020511
  0.6407848016353910  0.3056990167182281  0.7149569804455084
  0.7229082384530977  0.3225016972639030  0.6676757487770433
  0.3168726139038137  0.5933230119798887  0.5643002516377619
  0.1811651229339660  0.6108445142563154  0.5639030826496844
  1.0053010516795238  0.8980621156918888  0.5253516028690539
  0.9196858252217064  0.9143967167986250  0.4799222438241502
  0.6936792254837654  -0.0044543665250002  0.7085826794777468
  0.6458528819817312  -0.0137580744531961  0.6536725491376524
  0.3354152550022470  -0.0062580430313804  0.8684541682925511
  0.3003755126787805  0.9295071975759356  0.9168208840791737
  0.0223568821706120  0.0490741960764261  0.8769846296232210
  0.9774643564512748  0.1228027947851077  0.9140041812869231
  -0.0534786494511939  0.8172944271313534  0.6080955024709176
  0.0485544582037201  0.8856739096948348  0.6166597342482754
  0.1024959553175220  0.9159293768914457  0.7011911492019965
  0.1910584752075934  0.8405333267164015  0.6740981717759963
  0.6237630919796776  -0.0040247887119807  0.5785017424724656
  0.7497023621412754  0.0264525255954096  0.5623441885411263
  -0.0663045500927616  0.3916969382784832  0.4450626494102417
  0.8568715987511584  0.4052171717804158  0.3951266621472327
  0.0013094318124328  0.1620523291914341  0.7644413865271534
  0.1458560336958553  0.1248922384903325  0.7637954593445969
  0.9519282823809035  -0.2551812837329346  0.3404493458113946
  0.9606600448714511  -0.1665319784666253  0.3832796718288190
  0.3642241137350424  -0.0949247292910866  0.4901781315732522
  0.4930084857017131  -0.0646943363729034  0.5088218172657786
  0.3762908744469935  0.1254624801078403  0.6532696240293648
  0.3017380288167197  1.0349233728969147  0.6514235777294736
  0.4444714331109693  0.3605302008790187  0.9199261059926402
  0.5633097295453088  0.3902506066022618  0.8843576839209031
  0.5077797752255757  0.3515652146340801  0.3580160178034092
  0.6973590510974447  0.4338773133306041  0.3473325880423210
  0.6965754020184992  0.6051994335037606  0.3524322773081180
  0.3130815525761197  0.6047434524395029  0.3461735526823982
  0.5076429768324997  0.6826241094093494  0.3631869637266302
  0.2744018414115075  0.3693250195570875  0.3620594086065079
  0.5004742723053185  0.4160007476913869  0.3339957601003679
  0.6177076692761372  0.4732638682587527  0.3322811744814177
  0.3934273819556683  0.4702556227949521  0.3427758024039475
  0.6206375607535669  0.5750332939676661  0.3351322115199697
  0.3971364774880420  0.5702387558138797  0.3325536517537704
  0.5076280427336359  0.6275067388796959  0.3348021840955086
  0.3790076329293037  0.6910472375200699  0.4684384660072106
  0.2327738396799159  -0.1084189213709665  0.4436142968629471
  0.6559886773187413  0.6571229758142868  0.8747548771996315
  0.8180410392230721  0.6431759675553419  0.7842106441032531
  0.2901678909073951  0.1196853925668861  0.7785259250700646
  0.1225066625447423  0.5053774577309091  0.9195672816067224
  0.2876629608745746  0.8032359298089227  0.7909647161138912
  0.4678611218806658  0.1520228582883947  0.3896364809581704
  0.5512759198079671  0.1641698472582733  0.8852959432592521
  0.6585472219469125  0.1434805086956172  0.8014593828401410
  0.1254415836476830  0.2904018626138640  0.8763243936156360
  0.4092441607922080  0.4008074705179808  0.6427200054552498
  0.7780695838700796  0.2968373165238561  0.6049052688583411
  0.6890776867585924  0.8055817478520954  0.3777445522302373
  0.4010484820035133  0.8518365280553963  0.6723208964265003
  0.7500828593529878  0.8995859896182269  0.4830429561206126
  0.6714931459042236  0.2344550227096432  0.4059133834845308
  -0.0885783424783505  0.4018042908849297  0.8329156853692778
  1.1194609504905826  0.5883950039829233  0.7871509829395741
  0.2547356270358669  0.2520860823702837  0.3765850136721250
  0.5405065888994405  0.8610556497100856  0.8759528302573522
  0.4265198732623594  0.3953954788908321  0.7948699892560241
  0.7411186519607444  -0.0099061185574315  0.8718501545392709
  0.1627954235804940  0.7183749045777301  0.7172289107137724
  0.2401123818479706  0.4318542349909550  0.4883958167930995
  -0.0783302175768303  0.5284357504090128  0.3737902169679482
  -0.0926739328436008  0.2189535482918937  0.8067025029544821
  -0.2852775341412909  0.4494497320780191  0.8837359347435377
  0.6253312385314767  0.7176119833352730  0.5963074651796217
  0.5600130770904813  0.9004318180195420  0.6103882140194484
  0.1065245483242887  0.6425882391340583  0.6143564831049012
  0.5270077539576922  0.1683418405901886  0.6716202361418795
  0.9756119441943426  0.1784858701536085  0.5832783870763930
  0.9777719040588397  -0.0553805160521145  0.3739327578350047
  0.9352374703795291  0.7781590825715576  0.7250281958435842
  -0.1498104274881952  0.7371733857970639  0.6352725403115295
  0.3424471580458445  0.2878898754847510  0.5530158281029649
  0.6303286378414424  0.9653641545760178  0.7634313848056873
  0.6319804553648981  0.7682371109420221  0.7823220174605914
  1.1839606459141965  0.0465446845428775  0.3833169634313247
  0.6572723938909592  0.7066571354273550  0.4931735694451201
  0.8057404224547967  0.0825222997503172  0.3756523469730711
  0.3083465334827538  0.5899172521541176  0.8848092096507887
  0.8174915184804824  0.7835587442827557  0.8830688829808692
  -0.0331677585302841  0.6191257343698263  0.8640678132488856
  0.8592319225161419  0.0257779650709913  0.6041230026305983
  0.1622515655309326  0.3448013335687724  0.6987144636275859
  0.4533322656891413  0.5798859084108391  0.8075631021073379
  0.4805942677827060  0.2361389034447535  0.7595459573144107
  0.1462459303126796  0.7535067100073137  0.8850519170474151
  0.2860804103315721  0.1119236621347633  0.8816750702372860
  1.0492968595834617  0.4997381699630811  0.6636164147726609
  0.1155430745601886  0.1823198896121776  0.6584929770668371
  -0.0994597211024951  0.4628624891193180  0.5754400856646454
  0.1993527631304207  0.3831598184651254  0.7895149774027872
  0.8535902517066246  0.4792724243026916  0.7371670258598496
  0.5523283587082686  0.1981525190260583  0.5668621976014044
  -0.0036145213938698  0.4649698877950278  0.4876124905572988
  0.4455407345328506  0.5941469545638114  0.6267229881664718
  0.3888527440633309  0.9620870251922261  0.7487309730164905
  0.0935353635218989  0.9376522635018066  0.8522293719333007
  0.4785124457368623  0.6741579793433143  0.7197038726648649
  1.0204768402706610  0.9293564992020238  0.7552993805689564
  0.0112150502658963  0.1153014452108152  0.4882660715328821
  0.2195958762901075  0.7522591995982786  0.3700175331770226
  0.6768147382779698  0.3540645014242148  0.6935041605333555
  0.2485390358623121  0.5892539096939335  0.5407012242854553
  1.0031614883005755  0.9265228543125914  0.4921296743388103
  0.7019404707078785  0.0256180572613367  0.6751815784658481
  0.3125752224078532  -0.0724198685576511  0.8789189959696037
  0.9959182981328802  0.1154777611618221  0.8795928408985005
  -0.0134362379345637  0.8705344793781856  0.5898437988159964
  0.1496401193513194  0.9011642220990660  0.6686486757124414
  0.6648912278398331  0.0291655639307058  0.5500442139386968
  -0.1280213517650334  0.3587744588672559  0.4213641216924751
  0.0597727784609825  0.1146154497299602  0.7481463371900751
  0.9532843406192731  -0.2339258981730575  0.3774281127802446
  0.4229439265668982  -0.0431258909800630  0.4894569745092670
  0.3105088276536358  0.0954927918737189  0.6335190075206731
  0.4835362345673357  0.3580032699326411  0.8855926254172723
  0.2885454932328013  0.4391890344232207  0.3664501242956218
  0.8623465909231993  0.6224202961366642  0.4576650400528397
  1.0007827520748662  0.1921352399550585  0.3896739562271383
  0.5676593969872832  0.9665548021960948  0.3933923234458307
  0.2835558591431846  0.1035819058122241  0.5260615079775821
