combine
1.000
11.0985002518  0.0000000000000000  0.0000000000000000
0.0000000000000000  14.4173002243  0.0000000000000000
0.0000000000000000  0.0000000000000000  26.7964000702
Pt  H  C  O  K  
96  166  6  81  4  
Direct
  0.0000000000000000  0.0000000000000000  0.0018699899937576
  0.1249999521128992  0.1666699702868031  0.0018699899937576
  0.2499999943280624  0.0000000000000000  0.0018699899937576
  0.3749999464409617  0.1666699702868031  0.0018699899937576
  0.4999999886561249  0.0000000000000000  0.0018699899937576
  0.6250000308712881  0.1666699702868031  0.0018699899937576
  0.7499999829841874  0.0000000000000000  0.0018699899937576
  0.8749999350970866  0.1666699702868031  0.0018699899937576
  0.0000000000000000  0.3333300219343480  0.0018699899937576
  0.1249999521128992  0.4999999922211510  0.0018699899937576
  0.2499999943280624  0.3333300219343480  0.0018699899937576
  0.3749999464409617  0.4999999922211510  0.0018699899937576
  0.4999999886561249  0.3333300219343480  0.0018699899937576
  0.6250000308712881  0.4999999922211510  0.0018699899937576
  0.7499999829841874  0.3333300219343480  0.0018699899937576
  0.8749999350970866  0.4999999922211510  0.0018699899937576
  0.0000000000000000  0.6666699625079541  0.0018699899937576
  0.1249999521128992  0.8333300141554991  0.0018699899937576
  0.2499999943280624  0.6666699625079541  0.0018699899937576
  0.3749999464409617  0.8333300141554991  0.0018699899937576
  0.4999999886561249  0.6666699625079541  0.0018699899937576
  0.6250000308712881  0.8333300141554991  0.0018699899937576
  0.7499999829841874  0.6666699625079541  0.0018699899937576
  0.8749999350970866  0.8333300141554991  0.0018699899937576
  0.0000000000000000  0.2222199683821562  0.0864100026098289
  0.1249999521128992  0.0555599860957249  0.0864100026098289
  0.2499999943280624  0.2222199683821562  0.0864100026098289
  0.3749999464409617  0.0555599860957249  0.0864100026098289
  0.4999999886561249  0.2222199683821562  0.0864100026098289
  0.6250000308712881  0.0555599860957249  0.0864100026098289
  0.7499999829841874  0.2222199683821562  0.0864100026098289
  0.8749999350970866  0.0555599860957249  0.0864100026098289
  0.0000000000000000  0.5555599783168760  0.0864100026098289
  0.1249999521128992  0.3888900080300730  0.0864100026098289
  0.2499999943280624  0.5555599783168760  0.0864100026098289
  0.3749999464409617  0.3888900080300730  0.0864100026098289
  0.4999999886561249  0.5555599783168760  0.0864100026098289
  0.6250000308712881  0.3888900080300730  0.0864100026098289
  0.7499999829841874  0.5555599783168760  0.0864100026098289
  0.8749999350970866  0.3888900080300730  0.0864100026098289
  0.0000000000000000  0.8888900002512240  0.0864100026098289
  0.1249999521128992  0.7222199606033073  0.0864100026098289
  0.2499999943280624  0.8888900002512240  0.0864100026098289
  0.3749999464409617  0.7222199606033073  0.0864100026098289
  0.4999999886561249  0.8888900002512240  0.0864100026098289
  0.6250000308712881  0.7222199606033073  0.0864100026098289
  0.7499999829841874  0.8888900002512240  0.0864100026098289
  0.8749999350970866  0.7222199606033073  0.0864100026098289
  0.8644748980245276  0.2855167590504873  0.1715318936408794
  -0.0115765229702240  0.4504354866006340  0.1726702630867784
  0.1194142888076300  0.6209039047277406  0.1747187162691535
  0.1248585523593834  0.9552553850260602  0.1711210676205498
  0.0017531611081276  0.1272047777300860  0.1691089225764862
  0.7479286283706421  0.7904625445055073  0.1691144739788988
  0.1207449405592129  0.2894989964601815  0.1720168961772631
  -0.0043546740103161  0.7819557484971059  0.1724074582330834
  0.2480046640313939  0.7914961829446155  0.1733202345066098
  0.8833789152376618  0.9483538185224860  0.1699117172968084
  0.3704026684356092  0.9551543102563510  0.1724191458813936
  0.8734638857829250  0.6180374025909298  0.1714873102081470
  0.2388978944763265  0.1273116846735512  0.1740977665014083
  0.4939916772548448  0.1192267070226360  0.1702476337959060
  0.6198978315456797  0.9577408451290276  0.1670636932525313
  0.2518307564706055  0.4573804208076111  0.1736566724227621
  0.7528151356796998  0.1180452767732130  0.1699363873643648
  0.7367577314758214  0.4580297177532502  0.1721700640912086
  0.6094452124558900  0.2843365138426279  0.1720567122420034
  0.3684318344667175  0.2913918648110814  0.1760091203424400
  0.3653176921848002  0.6231502040414925  0.1763013278583559
  0.4953977602161412  0.7858661023236135  0.1725584157083190
  0.4922025362763798  0.4563998272027022  0.1747997032000217
  0.6214447534549904  0.6260005224548344  0.1712555251107560
  -0.0030882817878426  0.0212554525627130  0.2545867796878688
  0.1049002589166207  0.5213813927818769  0.2609873240390011
  0.8653753167183399  0.8574986113185591  0.2615231083071262
  0.2402507047082824  0.3585058522946140  0.2598439722708630
  0.8782227785613824  0.1827033665748535  0.2602237951677199
  0.6161719217414885  0.8536272036256038  0.2541750457993205
  0.7486736321380347  0.3476983060150839  0.2595625187181379
  0.2364993322835940  0.6906284816430283  0.2615403489476149
  0.1176468081070896  0.8558336452897916  0.2610559476188545
  0.7551615007118379  0.6851866052182201  0.2562199256770820
  -0.0040789288347908  0.6890860758975671  0.2592046538752905
  -0.0067054804893959  0.3484293595851716  0.2578438835925482
  0.2426729023557204  0.0187651646626604  0.2607977358298876
  0.8678738427147242  0.5203285361746173  0.2586166791003683
  0.5046957137647086  0.0184724301746259  0.2614890551881398
  0.3649602072985556  0.8489564166160846  0.2635466586705313
  0.6240874075555066  0.1830171360621792  0.2562503756702850
  0.3708302253750461  0.1863115880442462  0.2623455853541274
  0.1227030293556226  0.1904245013066097  0.2617114522931385
  0.7433349796664641  0.0172702531352113  0.2554313091299101
  0.3662819469991626  0.5255290474585279  0.2644653130321437
  0.6265390061573616  0.5222447929751405  0.2597104274032455
  0.4848898174622465  0.3526468083900121  0.2651225430128076
  0.4966908069228503  0.6881492154944499  0.2684747816256314
  0.4338117260049743  0.7917031341527877  0.4800250947777402
  0.3722505296902570  0.7527746280824185  0.4276033789606903
  0.1662546377111395  0.9107285461579899  0.4570060838626895
  0.2381570735984186  -0.1487440566775130  0.4166698724586054
  0.7494224941114037  0.6775760611362524  0.8694139447338873
  0.6446220341293122  0.6506013154037250  0.9074741492474853
  0.8195363827220560  0.6591627571077660  0.7460116390197929
  0.8386910208602605  0.7011894106818347  0.7994662952776294
  0.2817455593419352  0.2223063825360281  0.7764954223660648
  0.2569410670452980  0.1447427616012845  0.8168696083897744
  0.2043844007510932  0.5172209950467377  0.9102932324042564
  0.0650043635204668  0.5321815427182399  0.8947850532043889
  0.2107347383733831  0.8589614943321521  0.8119203527228729
  0.3161366524482399  0.8948707879339740  0.7797200397913022
  0.4168828020299059  0.1107408381015051  0.3490145207079750
  0.4585468380806330  0.1356421566919926  0.4045195381507489
  0.5673456794109436  0.1655340919153172  0.9168975546877115
  0.5845522558642827  0.2319048679283734  0.8688746076713664
  0.6263044322653101  0.0801383342390719  0.8370924007118909
  0.7513555613559191  0.1138094628725585  0.8102091980946439
  0.1020648909942839  0.2935957213241370  0.8548559043300262
  0.1277789605555037  0.4048827310581595  0.8687153745135980
  0.3762281740384508  0.4236186598657401  0.5935731274548509
  0.4842335204279857  0.4096340551780903  0.6318699377581589
  0.6583793855403947  0.3161781056079329  0.5341405945725295
  0.7928413775161094  0.3079377125418470  0.5548172653510108
  0.7860069019221932  0.8083753416368815  0.3946680772452382
  0.7352360653933016  0.7642930190444173  0.3492970119112773
  0.3911886159750152  0.8050037021313055  0.6836306015662228
  0.3442652481429031  0.9202313712201386  0.6916565252849529
  0.7317838806448456  0.7903699761342287  0.4968318199953131
  0.7566625804993794  0.8879268251363303  0.4753336515961687
  0.6547194962239609  0.1191207645523928  0.4284244320440285
  0.6613994609325238  0.2217338013265388  0.4187337284599756
  -0.1297754001371856  0.4315612249520241  0.8361579421079590
  0.0033742826193049  0.3889239893297878  0.8202450729172126
  1.1275904053676384  0.6323292591170711  0.7369849847689859
  1.1479557527634130  0.5169334358965847  0.7337815391055715
  0.3064032763299234  0.2262669205987480  0.3739476819591017
  0.1942127020856189  0.2424398113045265  0.3380661417976951
  0.5251158936320960  0.9119852923946716  0.8964400689335099
  0.4540705881664212  0.9193691588775637  0.8478046884314352
  0.5514192348923400  0.4402569046319614  0.8289705471073080
  0.4592580941261262  0.4139042071859007  0.7878513627275616
  0.7699889219459196  -0.0208305936914469  0.8583174180541460
  0.7977023038463359  -0.0426124411049246  0.9172722076177207
  0.1977236436016747  0.7794941972879424  0.7379301307189512
  0.0830602857760436  0.7828567400557132  0.7103300432123282
  0.3301312430033746  0.5794621540598197  0.5090088647380834
  0.4076297663611141  0.5557556041938517  0.4621553687568738
  -0.0239292528607122  0.3940787759225466  0.3455398559747989
  0.0403159198583999  0.4204694221656419  0.4010234367544951
  -0.0834778746659703  0.1881147321277816  0.8422975474306515
  0.8684760663529059  0.2808339287320754  0.8132045750590765
  -0.1964549255874802  0.4427308783680345  0.9192562243423823
  -0.2485018970606138  0.5226601632321812  0.8848909425363353
  0.7219131823419616  0.7613608871443858  0.5883737347067577
  0.5939114862416621  0.7111406771164605  0.5956320928925761
  0.4417546652580236  -0.1221778507692500  0.6071810001222513
  0.5558089061086919  0.8449659678493292  0.5788994913667976
  0.1475515196780220  0.7153458202193151  0.6419047049804559
  0.1073822477236698  0.6216932799660267  0.6158600274912535
  0.5190525170881268  0.2459706953332991  0.6359717645599701
  0.5324741260821746  0.1422189041013435  0.6209716565175840
  -0.1153593773440112  0.1582965228436732  0.5772284210408325
  -0.0409066079199636  0.2387586932814345  0.6001151336176470
  0.9037576321785671  -0.1220500511554988  0.3450823088054821
  1.0014687912447771  0.9263446404819832  0.3764679929308394
  0.9513527411676694  0.9030179977078276  0.7285333725073874
  0.8781425092475303  0.8058746718971175  0.7388119403253944
  0.8747771651962976  0.8026745713732872  0.6565222990966001
  -0.0389068060821973  0.7425168422349172  0.6197592010827164
  0.3499675144369220  0.4065551056792666  0.5029242424801360
  0.4243537325447340  0.3177504659491424  0.5076566595797384
  0.6057177524422461  0.9166252325054595  0.7404267412981610
  0.6680250678011702  1.0109634367350961  0.7589486244354393
  0.6751799607054724  0.7801693395440212  0.7747747992458244
  0.5647986593398835  0.8251802384920943  0.8061898009062962
  1.1620351760237457  -0.0217739924823714  0.3904816115443936
  1.1467180373885117  0.0065247424716487  0.3356109802003295
  0.6452351322818213  0.6096463196754128  0.5008395422572086
  0.5922657814990743  0.6679347717244027  0.4550208301397776
  0.8179953817839134  -0.0093332769385770  0.3796345975858568
  0.7517949112130505  0.0527550536832168  0.3373709080703588
  0.3704454758951056  0.6094096660338214  0.8618211320102758
  0.3994313081698604  0.5877674683653498  0.9169176980427363
  0.8926436988811386  0.7219955001252946  0.8895711277467162
  0.8434530048401615  0.8202068796465078  0.8752344593101514
  0.0456488413574467  0.5939120851328278  0.8134839848521974
  0.0437096574756866  0.6697611270191075  0.8592171201162454
  -0.1103742590807552  0.0152448959916607  0.5756408656942728
  0.7490063994594034  0.0375819591858647  0.5910998437478463
  0.1380884972049661  0.3541618358403792  0.6804843130655611
  0.2253269076688457  0.4318407855727572  0.6607084055962096
  0.5500515683377948  0.6329399384719450  0.8375231711873935
  0.4840901298829666  0.5711159614975543  0.8037668734597022
  0.6714033204073202  0.4350307490599906  0.7560386147775854
  0.8126590388946662  0.3955764443531177  0.7553310774348703
  0.2376485836878935  0.7120469881730879  0.8851218859721620
  0.1350998512034831  0.7532385604134333  0.9162262151289322
  0.2837793190741422  0.1851006220985851  0.9167822851592707
  0.3936321122929615  0.1629731079151528  0.8817854264042432
  0.9470243719276715  0.5332126576959904  0.6409307040873649
  1.0536963760939995  0.4749954418759769  0.6467682250786252
  0.1392711546453596  0.2100527351782353  0.6357864396399439
  0.0541904439027658  0.2261875525976523  0.6818401425391031
  -0.0586429743238905  0.5030565777548092  0.5556507012618606
  -0.1629552284784316  0.4668434357048141  0.5282790354269533
  0.2792999035880780  0.3892103276688509  0.7428625653278443
  0.2624171059894015  0.3637408121501901  0.8007075268726519
  0.9453026528064866  0.5602545419485553  0.7242914914337275
  0.8142231929070234  0.5089060911510729  0.7236374964622354
  0.5673587366976681  0.1919119694016317  0.4929636466948527
  0.5229907953246761  0.2137542458404086  0.5539357162870278
  0.0814827733461853  0.4544368307984032  0.4850815263299278
  0.1975132048444542  0.4748642640083751  0.4564774447856907
  0.4768290032648067  0.5573809964264768  0.6288603559640102
  0.4894397621353397  0.6459883785178089  0.6607192012963499
  0.3460759862105749  1.0619090185828004  0.7533594921300683
  0.4713872260670087  1.0116332652570634  0.7522423439936927
  0.1281636933485049  0.9784163421334935  0.8670565610579268
  -0.0224390577510335  0.9843432410098847  0.8663412587206805
  0.5152926355407770  0.7449544484894340  0.7317122221019914
  0.4080361513859077  0.6767689184799325  0.7328085959067948
  0.0623254294820432  0.9967794251019522  0.7796773796467678
  1.0164145888423486  1.0581142768455236  0.7328613200934877
  -0.0152748462092890  0.1841673306091479  0.5082691030854708
  -0.0119039931164188  0.0845372892939930  0.4899279549792904
  0.1729505014417321  0.7410218125091944  0.3871837844456605
  0.2772686735129745  0.7749672613162549  0.3533345259398992
  0.6607446085619234  0.3877659199589454  0.6733363865157926
  0.6861775378132626  0.3865825576140839  0.6152531975268777
  0.3796017189544791  0.6490683421593483  0.5755374320653995
  0.2463758582837824  0.6671451596040410  0.5677653634795298
  1.0084977197783731  0.9295573773591643  0.5214379409918890
  0.9723543508727462  0.9234092761390343  0.4613396012417325
  0.6465310066228311  0.0135148528066017  0.6685111989211429
  0.5809461918113031  -0.0127681382322700  0.6194222540683285
  0.2953000245928237  0.0316321070176051  0.8975223248083298
  0.3115417915442426  0.9209261316221671  0.9090870938776137
  0.0520451520831672  0.1060483166066713  0.8780888909278172
  1.0008565105901095  0.1670280619974341  0.9207976202422715
  -0.0445095647873579  0.8733367100365933  0.5939179679101282
  0.0666904805070358  0.9453695597132339  0.6046790161234917
  0.1240069326913596  0.9676925965018797  0.6860110148468461
  0.2115389493476139  0.9160951965638399  0.6503974222336620
  0.5977163582101204  -0.0084808586349555  0.4954037612560888
  0.7405422960428392  0.0098221343453279  0.5134284544251213
  -0.2570943749663140  0.3384656436837796  0.4665162417918288
  0.8198582505707701  0.3519091141591550  0.4169656717256426
  -0.0356319090803158  0.1791459847972613  0.7696270770540885
  0.1082814555601865  0.1734074678687899  0.7554745066003526
  1.0247759576664786  -0.3274832420526388  0.3462921341594503
  0.9917525945196825  -0.2360980441582827  0.3814095416184655
  0.3716899421370881  -0.0424790667095743  0.4702522711479262
  0.4273923306737497  -0.0593052686909358  0.5260053059356640
  0.3221208583042725  0.1520796107446293  0.6235262337787336
  0.2237723621979654  1.0790954193197684  0.6276604641533279
  0.5258459045179079  0.3593230836428342  0.9192049188910381
  0.6393135272623195  0.3827311169465441  0.8867383828107868
  0.5037982861597144  0.3441446324282881  0.3642453398266177
  0.6778431972085491  0.4271529827630406  0.3525112689336518
  0.6878412742444084  0.5944597484593286  0.3502331708854037
  0.3044135246879014  0.6109991549147822  0.3489532415960160
  0.4971881448401158  0.6792898676683764  0.3642400489032239
  0.2506889674799764  0.3567540614456288  0.3680412996806847
  0.4878684082402788  0.4049304655014529  0.3409362679377183
  0.5986952988015067  0.4611571693286848  0.3373374247667191
  0.3751510221504683  0.4604087939232940  0.3508148037487424
  0.6046001789036063  0.5615889269374712  0.3370880799897156
  0.3817751713086463  0.5635306686619597  0.3402255836872178
  0.4926289590805989  0.6182573405786714  0.3402837107526415
  0.4479556591976181  0.7606435745103207  0.4466222153590453
  0.2389569140542099  -0.0892949100366332  0.4376347111656060
  0.6806894191109072  0.6340118805664816  0.8743507341590877
  0.8085294089392525  0.7186883006178836  0.7647558027352235
  0.2499906087806789  0.1562499709899309  0.7811806939686343
  0.1212277244920358  0.4910895761029186  0.9139046359937862
  0.2754720390085273  0.8356944194581331  0.7911931002843010
  0.3858965972637056  0.1217896655949851  0.3828347355474990
  0.5728730685453495  0.1682728181113251  0.8799238857767963
  0.6908337115689571  0.0652701785119196  0.8118709221017248
  0.1213459836505006  0.3542023134118331  0.8418067061286280
  0.4003671146720332  0.4315761265422426  0.6278960178875408
  0.7320530688083108  0.3523984962203060  0.5397749352415921
  0.7216849886723178  0.7684215282225556  0.3851119569929222
  0.3488761126506280  0.8645678565388408  0.6660157652724131
  0.7859556853084972  0.8230428231146951  0.4743153751139355
  0.6031334322954454  0.1737222390554474  0.4299683448715582
  -0.0867645324911196  0.3953308164099587  0.8081856685959817
  1.0963241260391570  0.5661783840182412  0.7490297624351820
  0.2302235187484541  0.2614631658808384  0.3704753820137268
  0.5285907980899074  0.8925424265155566  0.8596701204583883
  0.5346323909969422  0.4504682456049311  0.7925863438133643
  0.8247275282365731  -0.0516562995230377  0.8826370547774656
  0.1570720322610499  0.7446829418800758  0.7101863197386560
  0.3633697261074472  0.5243171698650690  0.4881681641911075
  -0.0242061089070507  0.3861410509518816  0.3828615324567151
  -0.1366152514844600  0.2080713984539120  0.8121548650858595
  -0.2268940905408900  0.4562557775285129  0.8848268108956859
  0.6398467461807080  0.7602231767100596  0.5747568751904012
  0.4922030792236126  0.8937385434605957  0.5790298474553337
  0.1153372132772978  0.6893712086225603  0.6112928456914826
  0.4813247966754440  0.1951729327698467  0.6162720517210409
  0.9214892224146518  0.2182992886556754  0.5666103109120612
  0.9278315897708704  -0.1160793959384483  0.3816530008772805
  0.9280096830947571  0.8436847448524697  0.7158079426284979
  -0.1130594435042242  0.7858046669379158  0.6194215436333466
  0.3376441582359058  0.3410562597713220  0.5078830909953056
  0.6139391802775253  0.9877811749870422  0.7313806758765011
  0.5926788522830531  0.8047374501395816  0.7711820130227576
  1.1014290230175403  -0.0048758563327631  0.3656701884518052
  0.6434784909557251  0.6132790087007635  0.4646372741107933
  0.7701261048233767  0.0446477792711189  0.3749109569263502
  0.3325847534851699  0.6017021912797957  0.8951596372370838
  0.8603208829545614  0.7584912120903652  0.8642038467492980
  -0.0015425035916203  0.6146719350175889  0.8431794297595500
  0.8129005821427789  0.0548864469137058  0.5645291870352007
  0.1839636651419515  0.4154797186371858  0.6904410540867817
  0.4824791975322555  0.6350891696884645  0.8149449384540783
  0.7412855204887422  0.4171928300599729  0.7353464532578511
  0.1653145296007389  0.7465177631981068  0.8817304835240002
  0.3026225289543314  0.1615598206364668  0.8828330313372363
  1.0062561513920532  0.5021183442027880  0.6198545576452885
  0.0820737622501984  0.2555840277217303  0.6506144802072988
  -0.0910665662989988  0.5026719834539528  0.5214166972241252
  0.3186881788308615  0.3606357270646658  0.7729448758989741
  0.8637559642660042  0.5642675310657885  0.7109847963901444
  0.5369110678475283  0.2374018077483838  0.5194299906941237
  0.1100837578304194  0.4695817113795802  0.4531120049294509
  0.4774249516947693  0.6235939859354990  0.6252575284630368
  0.3829940004290769  0.9980104717420218  0.7501296362437081
  0.0506123190121024  1.0076658828199831  0.8532853401314867
  0.4591661794820882  0.7121662503770546  0.7094628936571966
  1.0358652054213759  0.9949170398576785  0.7435066639774683
  0.0158936322203886  0.1471508918448014  0.4820272586676451
  0.2604827046997752  0.7592761365855162  0.3894627939782848
  0.6279899165537810  0.3726204070887921  0.6394991071079384
  0.3201957116434401  0.6626414096793111  0.5485174126522248
  1.0224162285043559  0.9561562352683344  0.4851390803146406
  0.6322739636341321  0.0353081144514153  0.6314665767890854
  0.2810772853200648  -0.0341396016343204  0.8849438535242398
  1.0259038229199815  0.1742059020500105  0.8852812706652108
  0.0009037579107477  0.9324312177561457  0.5810377370546473
  0.1641095242940237  0.9741640661632205  0.6532462710155884
  0.6852565536200748  -0.0055238786916409  0.4836309144082455
  -0.2516374814378233  0.3229635898510309  0.4312599881672743
  0.0275399399257056  0.1703446491778416  0.7379088277081548
  1.0313004084442543  -0.2990453107394684  0.3802707036544086
  0.4260506539370586  -0.0152938865508508  0.4976883047969982
  0.2437770999880097  0.1352410850204563  0.6085565143519029
  0.5561316066374790  0.3607527705938806  0.8832800338886470
  0.2741517087145650  0.4290636693806066  0.3687871997772513
  0.8928292668275524  0.6151548088214005  0.4372434496949407
  0.9629333798921812  0.1677704198823008  0.3852563235716367
  0.5347725148032869  0.9059073110988182  0.3861095181477778
  0.2727708945547856  0.1619345928487353  0.5116122565861392
