combine
1.000
11.0985002518  0.0000000000000000  0.0000000000000000
0.0000000000000000  14.4173002243  0.0000000000000000
0.0000000000000000  0.0000000000000000  26.7964000702
Pt  H  C  O  K  
96  166  6  81  4  
Direct
  0.0000000000000000  0.0000000000000000  0.0018699899937576
  0.1249999521128992  0.1666699702868031  0.0018699899937576
  0.2499999943280624  0.0000000000000000  0.0018699899937576
  0.3749999464409617  0.1666699702868031  0.0018699899937576
  0.4999999886561249  0.0000000000000000  0.0018699899937576
  0.6250000308712881  0.1666699702868031  0.0018699899937576
  0.7499999829841874  0.0000000000000000  0.0018699899937576
  0.8749999350970866  0.1666699702868031  0.0018699899937576
  0.0000000000000000  0.3333300219343480  0.0018699899937576
  0.1249999521128992  0.4999999922211510  0.0018699899937576
  0.2499999943280624  0.3333300219343480  0.0018699899937576
  0.3749999464409617  0.4999999922211510  0.0018699899937576
  0.4999999886561249  0.3333300219343480  0.0018699899937576
  0.6250000308712881  0.4999999922211510  0.0018699899937576
  0.7499999829841874  0.3333300219343480  0.0018699899937576
  0.8749999350970866  0.4999999922211510  0.0018699899937576
  0.0000000000000000  0.6666699625079541  0.0018699899937576
  0.1249999521128992  0.8333300141554991  0.0018699899937576
  0.2499999943280624  0.6666699625079541  0.0018699899937576
  0.3749999464409617  0.8333300141554991  0.0018699899937576
  0.4999999886561249  0.6666699625079541  0.0018699899937576
  0.6250000308712881  0.8333300141554991  0.0018699899937576
  0.7499999829841874  0.6666699625079541  0.0018699899937576
  0.8749999350970866  0.8333300141554991  0.0018699899937576
  0.0000000000000000  0.2222199683821562  0.0864100026098289
  0.1249999521128992  0.0555599860957249  0.0864100026098289
  0.2499999943280624  0.2222199683821562  0.0864100026098289
  0.3749999464409617  0.0555599860957249  0.0864100026098289
  0.4999999886561249  0.2222199683821562  0.0864100026098289
  0.6250000308712881  0.0555599860957249  0.0864100026098289
  0.7499999829841874  0.2222199683821562  0.0864100026098289
  0.8749999350970866  0.0555599860957249  0.0864100026098289
  0.0000000000000000  0.5555599783168760  0.0864100026098289
  0.1249999521128992  0.3888900080300730  0.0864100026098289
  0.2499999943280624  0.5555599783168760  0.0864100026098289
  0.3749999464409617  0.3888900080300730  0.0864100026098289
  0.4999999886561249  0.5555599783168760  0.0864100026098289
  0.6250000308712881  0.3888900080300730  0.0864100026098289
  0.7499999829841874  0.5555599783168760  0.0864100026098289
  0.8749999350970866  0.3888900080300730  0.0864100026098289
  0.0000000000000000  0.8888900002512240  0.0864100026098289
  0.1249999521128992  0.7222199606033073  0.0864100026098289
  0.2499999943280624  0.8888900002512240  0.0864100026098289
  0.3749999464409617  0.7222199606033073  0.0864100026098289
  0.4999999886561249  0.8888900002512240  0.0864100026098289
  0.6250000308712881  0.7222199606033073  0.0864100026098289
  0.7499999829841874  0.8888900002512240  0.0864100026098289
  0.8749999350970866  0.7222199606033073  0.0864100026098289
  0.8790518144753572  0.2879499737754518  0.1722952013070740
  0.0000127842678543  0.4513246351929893  0.1708497766679982
  0.1328010096644326  0.6219856506203393  0.1711707923409044
  0.1257405749550411  0.9565148347855509  0.1724611839535619
  0.0004347409641422  0.1226021298579028  0.1697654593558263
  0.7517578325456032  0.7819145830576154  0.1714340920931665
  0.1267189895023794  0.2893606953102451  0.1710402587844999
  -0.0018324265656255  0.7836553090610665  0.1720287552926356
  0.2487717054340032  0.7940335904502415  0.1690913254104950
  0.8697837764462265  0.9545325319233389  0.1688863324492909
  0.3729113486958527  0.9570530929669905  0.1734291514242687
  0.8774172957216131  0.6172324601523697  0.1704334243792291
  0.2512731362192570  0.1279838394216133  0.1740272872319895
  0.4954141113352910  0.1231018757526201  0.1699732555070038
  0.6217030305856807  0.9582957015706322  0.1727420655040792
  0.2498744519062588  0.4482253200781742  0.1730504781631807
  0.7488571915157687  0.1214426686730809  0.1711383513601114
  0.7502563091665956  0.4523397605266029  0.1685540263680012
  0.6260526279100732  0.2913397717015315  0.1725945998038490
  0.3798244374879674  0.2895602670577453  0.1699514630424015
  0.3751525603402788  0.6208264913158926  0.1693795210554238
  0.5008003919176881  0.7829176123678899  0.1747176613289405
  0.5008720818831742  0.4529468699135079  0.1742062540181040
  0.6226745840438384  0.6144716542746567  0.1722684792810509
  0.0010020052122084  0.0228763626177462  0.2571774777561964
  0.1233575074864693  0.5146829170133536  0.2566530441769400
  0.8728888898956234  0.8533557776970930  0.2576066019657871
  0.2494808012236549  0.3456949547668858  0.2583850582153337
  0.8730719207334766  0.1799055357693319  0.2568759163681431
  0.6220936761685644  0.8561153621186578  0.2616809872680657
  0.7484567580158208  0.3531210908002844  0.2571387139036909
  0.2459219229784980  0.6796798665802755  0.2573329648174839
  0.1224069377463561  0.8485342911067786  0.2542676158458007
  0.7553455289367027  0.6852375972339625  0.2562491126312233
  -0.0042904306185223  0.6823513244191768  0.2569321088229525
  0.0015363583288863  0.3468783677106797  0.2569698183136809
  0.2511050631771631  0.0149032246992992  0.2620439910959872
  0.8766279001635441  0.5217736069282168  0.2600113807655954
  0.5047715818983209  0.0202600928922656  0.2581524613335260
  0.3691985656742623  0.8523063579746335  0.2589974355330709
  0.6265232492085818  0.1858388327159974  0.2542489161548464
  0.3829726701597046  0.1855318018550781  0.2621885927361273
  0.1211571680130310  0.1777512621246969  0.2604776112356313
  0.7475421894912715  0.0147187131639484  0.2603155603784780
  0.3653711721313275  0.5249223465322853  0.2573801696620409
  0.6296491854623899  0.5152175055340954  0.2603964860287265
  0.4929652231537016  0.3564066370303726  0.2627054943558864
  0.5168104204502532  0.6850572718152257  0.2672797182396502
  0.3855114784726053  0.7629997261248057  0.5010113352513399
  0.3857215671825300  0.7683401127992976  0.4382353206936708
  0.2126747703336931  0.9740681399025142  0.4701560409493456
  0.3199379924620095  -0.0963781538070499  0.4623445573712667
  0.7306266216721373  0.6802443766392589  0.8771185259149095
  0.6455145507914976  0.6355817729699048  0.9199499380558401
  0.7708180887784840  0.6476830676079909  0.7534527926179492
  0.8284924227675459  0.6643360030234118  0.8079595714491961
  0.4015188169750472  0.1908231244822798  0.7652448433364113
  0.3496777570078065  0.1558277439706351  0.8129114995235782
  0.1961224356098906  0.5225038119899283  0.8932433056154677
  0.0437754572399279  0.5228382430848620  0.9065554347770524
  0.2181856420472006  0.8298180233103158  0.8385797788371460
  0.3389064257479265  0.8569286851207158  0.8122961780454393
  0.3704799598696351  0.1566203101253400  0.3456665713130945
  0.4321444005303455  0.1897221686061411  0.4010676860751836
  0.6411006252620500  0.1251379882316071  0.9024170831734980
  0.6129796684463413  0.2315449165144982  0.8856793327434024
  0.6924048640854580  0.1643379144665787  0.8232994921707534
  0.8132600858513411  0.1657927269747242  0.7869639206742373
  0.0925851494784934  0.2837376203143204  0.8498403471265247
  0.1392556406483245  0.3757494255525933  0.8790816089880905
  0.3893134280462115  0.4697124847192948  0.5876941951397899
  0.4717785661401231  0.4517732295483388  0.6347045777993962
  0.6577917154271339  0.3467176060379711  0.5615902929414534
  0.7977361832256638  0.3383181951971055  0.5746913805718927
  0.7281613627110841  0.8548771386147932  0.3767267736544379
  0.6459063534676560  0.7922139980167160  0.3427849325781260
  0.2395822072327972  0.8378063321898025  0.6940988017186736
  0.3448035799593150  0.8991932588633761  0.7174836812867640
  0.7671423605112000  0.9025790716050519  0.4802561400630689
  0.7461240406114310  1.0109848371911592  0.4854707891776489
  0.5938623407005867  0.2267768459374469  0.4094236858517732
  0.5637598160512932  0.1838290516856238  0.4634635822970570
  -0.1172880061960517  0.4325261042001203  0.8428361459536692
  -0.0152432030960726  0.4299430640316683  0.8016740105059815
  1.1051895480482292  0.6565345464503966  0.7635402807615752
  1.1406009046444736  0.5584456996553190  0.7870717227331868
  0.2611739351927200  0.2453959115269639  0.3733451376002437
  0.1857589233883771  0.2800933591570585  0.3308968621408487
  0.4176057614134224  0.9446366049758284  0.8749218452956549
  0.5589396284596118  0.9593902487642463  0.8665288617153675
  0.4986296847542501  0.4077679001226069  0.8313189511143814
  0.3851658123273639  0.4305598032867067  0.7939706255080257
  0.7093035607422050  -0.0340370907150077  0.9208773776161876
  0.7576272183474764  0.0345763084935830  0.8750291564826974
  0.1812787653605448  0.7969469923525757  0.7587191692965441
  0.0461198015215600  0.7909266779629436  0.7326705142394698
  0.3115883133434304  0.6151978949325542  0.5088744046579771
  0.2851579846463233  0.5915927979445343  0.4519837318770709
  0.1648434273904064  0.6785126232310917  0.3812837711272364
  0.1440529939025504  0.5865025689239646  0.3540528377672184
  -0.0681314623908184  0.2014057902328925  0.8467037153036004
  0.9325517555510625  0.2943753279512540  0.8108095434230408
  -0.1781908101483582  0.4633102109187934  0.9160167589376044
  -0.2513663216746371  0.5294523589051928  0.8847476969067006
  0.7355652469238789  0.7742018661224030  0.5995960070049843
  0.6193003378258480  0.7044430311634930  0.5950177666712601
  0.4393520353985815  -0.1258092083872150  0.6399241963464243
  0.5473321674263874  0.8407064059449102  0.6010949687907007
  0.1533275606966815  0.7427652190977341  0.6436411305479988
  0.0750213711501211  0.6525417653745765  0.6292701919856858
  0.4865497901776603  0.2038255599024732  0.6733051807195733
  0.5579550185797113  0.1167674563274025  0.6514744723942952
  -0.1427116985327021  0.1972339619110667  0.5894835839746478
  -0.0336399689984643  0.2685679380993814  0.6105140756161989
  0.6992427185142751  0.0109389978599587  0.3488658558018845
  0.7273110725920684  1.0010799160839945  0.4056700815155006
  0.8861589674879643  0.8816646395471149  0.7484061257393489
  0.8592572409549963  0.7809894491911847  0.7463041198373458
  0.8838081517103309  0.8231528915099781  0.6598271995484517
  -0.0454994404237727  0.7708685926140244  0.6200149737082200
  0.3460091441974048  0.4788002049277683  0.5075032753158361
  0.4279277421136004  0.3890926046226775  0.5240245688679627
  0.7137127187986788  0.9574490349541303  0.7546205390099282
  0.7287736019998023  1.0568384695644213  0.7530922052377531
  0.6580028784083322  0.7843856189551655  0.7856918558815524
  0.5722535911975983  0.8546127368446493  0.8211736126477293
  1.1206641676638069  0.0778509239967288  0.3879952466250217
  1.0382795826247870  0.0803993525740898  0.3391670659413381
  0.6932510978275779  0.7644334340852712  0.5179608089534098
  0.6376175254266708  0.7932344243428047  0.4655402739218354
  0.7290960124894016  0.1405047842026438  0.3764381962642011
  0.6966622480858174  0.2239366712679215  0.3415131645678440
  0.3864144207055772  0.6044672377572776  0.8595443184554636
  0.3572824219431712  0.5833281851428137  0.9186509946489342
  0.8431800130546715  0.8054821687646334  0.9201451738593918
  0.7856880876211866  0.8695162080741550  0.8786891574620479
  0.0219178551408825  0.6304440292628581  0.8364030643737407
  -0.0254670886685036  0.6993669387979716  0.8737632738189390
  -0.1254383423268572  0.0509512104465915  0.5833729737892858
  0.7291009782774586  0.0710225079848274  0.6086917572162619
  0.1261314853124379  0.3742744148869934  0.6708091038127958
  0.2196759522535113  0.4468424606738596  0.6562458030829345
  0.5407158936836273  0.6262248902872075  0.8356992231170574
  0.4955625811071174  0.5338436569509456  0.8028716017576396
  0.5247702096375961  0.3279540051840439  0.7573353083449665
  0.6123096386737337  0.2447519395796814  0.7593345646129597
  0.2519181767776729  0.7014633500074057  0.8814496849323876
  0.1748898518054453  0.7808165244368123  0.9117926149405203
  0.2820321035891621  0.2295017072491220  0.8936174191782500
  0.4214800407867123  0.2061447670272332  0.8886272247883436
  0.9306086014121505  0.5681939565212693  0.6830817661494701
  1.0409493837805959  0.5134348861601379  0.6589120456458469
  0.1602502560480232  0.2382145863211883  0.6329530810581532
  0.0909950619171458  0.2272734770673121  0.6838943621303837
  -0.0938781026140013  0.5466072084506810  0.5805397742288557
  -0.2041800824694738  0.4993913489825779  0.5583371016257682
  0.1968836086970948  0.4308228314016105  0.7478554663649052
  0.2063323875789976  0.3877168784054645  0.8060068848956695
  0.8283129240465653  0.4787840611354924  0.7428338488286883
  0.7406282797323781  0.4938576979620122  0.6980651636710836
  0.5639074851383605  0.2341081124058978  0.5331287405537446
  0.5173076074011753  0.2252247755461899  0.5910607739326004
  -0.0997773627765968  0.5622032336566358  0.4851839846449554
  0.0139272597371821  0.5701221004780099  0.4521273349315826
  0.4326403636222153  0.5929479398293562  0.6207632886403552
  0.4461259285007425  0.6845218893039432  0.6523991966309495
  0.3841537980150537  1.0482805636194481  0.7495910618545292
  0.4582170434492001  0.9559924913659897  0.7717930324976537
  -0.0209931333526088  0.9214052486061053  0.8809986573403105
  0.0079483133665464  0.9800457436118927  0.8306457172526410
  0.5207753793727764  0.7655196022898846  0.7433625687784906
  0.4612626680410920  0.6727384007341719  0.7505834879203565
  0.1454910971721712  0.9589080140329279  0.7818707343267257
  1.0874425737515843  1.0477855493456958  0.7677477970587133
  -0.0041730842860943  0.2353385157632546  0.5253314638952147
  0.0560505205916546  0.1608964201765194  0.4972876406118138
  0.2056443368760423  0.8343522499257691  0.3682779441957460
  0.3068227910746516  0.7851130590401213  0.3378374127749926
  0.6293160374048944  0.3496033910499163  0.6747292092010124
  0.6808926992612712  0.4045449330291089  0.6320451506668966
  0.3433433074691314  0.7059741085744214  0.5768683312834502
  0.2111573540776301  0.7156111897365256  0.5525707251686620
  1.0495479903161522  0.9909565443549381  0.5229630572423158
  1.0116143231675914  1.0130930962845484  0.4675453000394948
  0.6646338125463086  0.0077892371978716  0.6840438929736874
  0.5845678121012591  -0.0167676275127119  0.6365658492936767
  0.2997430849055900  0.0628740432950242  0.9059523549395495
  0.1831047021033686  1.0010962229026321  0.8974112801496369
  -0.0668887131465894  0.0648242060968372  0.8780760011217575
  0.8754813245802407  0.1291809687545316  0.9228502592555684
  -0.0572722628894755  0.9134013665543530  0.5948651867318171
  0.0549148888023094  0.9762489223590662  0.6103254743829452
  0.1283393555601343  1.0201120877271652  0.6933957037894501
  0.2353732789686001  0.9648047546415968  0.6674711330754700
  0.5716924531736577  0.0693794226892827  0.5223650201306883
  0.7012534657588302  0.1098128780679442  0.5325074850770243
  -0.0729030885834124  0.4824993601905623  0.4042894302301384
  0.9711012489504621  0.4669770017726661  0.3499639780840907
  0.0647330702257254  0.2175414934561564  0.7716748347363237
  0.1935352698533873  0.1813145900363548  0.7550323359479905
  1.0399838421256988  -0.1294387172332473  0.3352600001703493
  1.0199861372408423  -0.0621558279884894  0.3807794356170711
  0.3903381276490390  -0.0066542303210349  0.5175447828577106
  0.4694862211455034  -0.0124167588740555  0.5690881467006766
  0.3301859647483150  0.2019990043552970  0.6112353645784986
  0.2325167504304439  1.1238214735232563  0.6204321629788204
  0.5536100668559701  0.3759515156287290  0.9126623463275330
  0.6740943989064315  0.3942976572838905  0.8807729125804116
  0.4869393567498914  0.3475084708269822  0.3624014493797457
  0.6849024325306633  0.4143654864959335  0.3525225669885849
  0.7135452848068925  0.5879928378762463  0.3555195087079806
  0.3230305573330545  0.6069226536638100  0.3485743516192504
  0.5286198999228282  0.6643559663726881  0.3682359867836662
  0.2536796960150878  0.3834607342074978  0.3675531770423552
  0.4910935352383338  0.4081491795101814  0.3377501809940864
  0.6149856674097048  0.4561681756904191  0.3393179549297622
  0.3907764962654843  0.4730318695386065  0.3460204293304088
  0.6284880513895308  0.5529044832377439  0.3392270330598984
  0.4033946212303675  0.5695823592796625  0.3343946551001439
  0.5212112067810081  0.6154323694907174  0.3360501218823903
  0.4182220002875794  0.7970461227568653  0.4698630016202033
  0.2949202774283979  -0.0300139876445564  0.4537424880412024
  0.6728020818929077  0.6303444642210217  0.8848803935670985
  0.7860122221545363  0.6941800737652272  0.7793468420530314
  0.3425282357301788  0.1421095881492942  0.7759959993366676
  0.1178691817201009  0.4871049018985781  0.8966337298650681
  0.2517720131462636  0.8673225531243404  0.8074982676222784
  0.3571641527923653  0.1639540961223736  0.3828544453629449
  0.5997073121767534  0.1663139229533815  0.8774138790921745
  0.7246286136449533  0.1570769073382429  0.7882946588557311
  0.1675922229670927  0.3139790311829887  0.8616594672609569
  0.4011554166048624  0.4876179874405946  0.6218736448532067
  0.7303251913055021  0.3832330749544521  0.5715895244239679
  0.6800773161288941  0.7984098180253361  0.3779182222451575
  0.3120365633670490  0.8744847102892414  0.6853985173487865
  0.7949124603091445  0.9622207153956630  0.4707744785475523
  0.5337381206383512  0.2275454097481196  0.4370607821244022
  -0.0908427139186200  0.4019479272847953  0.8116683543692765
  1.0718710020906321  0.5985971468052035  0.7791256584543215
  0.1984329006203177  0.2941573828054143  0.3673432901066002
  0.4827933150545247  0.9322082629691889  0.8524515013008428
  0.4769956801813297  0.4287703918713491  0.7963789446901151
  0.7052745845034788  -0.0206330508813722  0.8838361981144742
  0.1336489439966839  0.7679317451085091  0.7301553422640017
  0.3284490084512807  0.5676940380699734  0.4814354923610346
  0.1309652409985991  0.6157880964312825  0.3871385417825855
  -0.0402244946498601  0.2278544933928154  0.8136441666859048
  -0.2080230242032529  0.4686200344300616  0.8814755584078614
  0.6640931442790780  0.7597422668523101  0.5799956162314456
  0.4960822035488129  0.8973525854163966  0.6134866909858501
  0.1019317133967288  0.7144851810908405  0.6172887098664870
  0.4896703410101372  0.1656992891549492  0.6445210784155566
  0.9079449327187876  0.2527536860721042  0.5807332072827891
  0.6728702115214921  0.0322201436658058  0.3818721150823460
  0.9022169494726109  0.8285272977229666  0.7264225287465905
  -0.1154066379907743  0.8137883543706014  0.6220444521141825
  0.3495421920516534  0.4187962296036016  0.5299022499328589
  0.7480698790139212  1.0014189021579449  0.7310274149020718
  0.6102417931559324  0.8422669458136769  0.7857279065785665
  1.0370742153592567  0.0788293767361830  0.3781359377100975
  0.7137749540993347  0.7757033138597204  0.4828699225717832
  0.7165733268790229  0.2110222126450665  0.3776387329786747
  0.3189316697835748  0.6017827827415759  0.8865040623616387
  0.8552801340397767  0.8242403778601320  0.8845979555351176
  -0.0396859152234164  0.6346422393062324  0.8642878466557818
  0.7979033876549017  0.0912853706467016  0.5825587288741911
  0.1537143884303930  0.4379346251774787  0.6802652380821819
  0.4721789039064154  0.5996651619925439  0.8158593119832021
  0.5370543358804989  0.2669580418678471  0.7435556919811016
  0.1961675210348261  0.7540835108487074  0.8770918875755008
  0.3413476491461604  0.1819388033744964  0.8815320150847297
  0.9811268772944318  0.5635883645472543  0.6527892588211176
  0.0944245833062026  0.2668275722049604  0.6535735931363591
  -0.1490414834140969  0.5486941599625380  0.5504291132114716
  0.2283987191142228  0.4416118456192534  0.7831063548284819
  0.7925093984994488  0.5283562609219264  0.7223701737804187
  0.5106715232610632  0.2667783008442376  0.5575633197130605
  -0.0702516745425624  0.5682025737379511  0.4516433429115343
  0.4335787972000594  0.6663309240524907  0.6178905468318163
  0.4291607146224564  0.9908970609782546  0.7414245823861412
  0.0257530370874790  0.9770257780758614  0.8662124856806095
  0.4996953262131564  0.7092429928500341  0.7241711003329995
  1.0708458790161741  0.9801566732086353  0.7655833417942727
  0.0283609237337225  0.2273197241725001  0.4933580145939853
  0.2825816487494653  0.8013664119393724  0.3721500280961274
  0.6351408575908034  0.4102294821419772  0.6614236680101826
  0.2991673398630142  0.7086909766836103  0.5435085367454472
  1.0711492389948751  1.0329850620297456  0.4932505089965000
  0.6371366028804796  0.0328459324445394  0.6494082640694847
  0.2611262128259151  0.0021677643396316  0.9142569842448671
  0.8768818090103311  0.1182264594536983  0.8835307991810891
  -0.0052282047198755  0.9684101443741620  0.5845981609343497
  0.1761121183903202  1.0171180840976060  0.6609989174328594
  0.6369327153777846  0.1073880710821621  0.5050205698581733
  -0.0849074095977217  0.4386766890336484  0.3757510474549669
  0.1102526758155045  0.1793662624602490  0.7445846034777119
  1.0151991421518995  -0.1295243816212246  0.3722204693231226
  0.4424115393702548  0.0264306294015946  0.5409139322605963
  0.2505201226308990  0.1793779762969155  0.6004921126138381
  0.5933447017070599  0.3578356843748453  0.8808958342374764
  0.2899784454821306  0.4532856384779419  0.3693583233072743
  0.9016587501250013  0.7097245810317311  0.3883910766123415
  0.9813154073347552  0.2611952824324872  0.4004529181900630
  0.4293533529566000  0.9533060020443123  0.3711582040887841
  0.2835715685720304  0.2051101070723231  0.5056530756222162
