combine
1.000
11.0985002518  0.0000000000000000  0.0000000000000000
0.0000000000000000  14.4173002243  0.0000000000000000
0.0000000000000000  0.0000000000000000  26.7964000702
Pt  H  C  O  K  
96  166  6  81  4  
Direct
  0.0000000000000000  0.0000000000000000  0.0018699899937576
  0.1249999521128992  0.1666699702868031  0.0018699899937576
  0.2499999943280624  0.0000000000000000  0.0018699899937576
  0.3749999464409617  0.1666699702868031  0.0018699899937576
  0.4999999886561249  0.0000000000000000  0.0018699899937576
  0.6250000308712881  0.1666699702868031  0.0018699899937576
  0.7499999829841874  0.0000000000000000  0.0018699899937576
  0.8749999350970866  0.1666699702868031  0.0018699899937576
  0.0000000000000000  0.3333300219343480  0.0018699899937576
  0.1249999521128992  0.4999999922211510  0.0018699899937576
  0.2499999943280624  0.3333300219343480  0.0018699899937576
  0.3749999464409617  0.4999999922211510  0.0018699899937576
  0.4999999886561249  0.3333300219343480  0.0018699899937576
  0.6250000308712881  0.4999999922211510  0.0018699899937576
  0.7499999829841874  0.3333300219343480  0.0018699899937576
  0.8749999350970866  0.4999999922211510  0.0018699899937576
  0.0000000000000000  0.6666699625079541  0.0018699899937576
  0.1249999521128992  0.8333300141554991  0.0018699899937576
  0.2499999943280624  0.6666699625079541  0.0018699899937576
  0.3749999464409617  0.8333300141554991  0.0018699899937576
  0.4999999886561249  0.6666699625079541  0.0018699899937576
  0.6250000308712881  0.8333300141554991  0.0018699899937576
  0.7499999829841874  0.6666699625079541  0.0018699899937576
  0.8749999350970866  0.8333300141554991  0.0018699899937576
  0.0000000000000000  0.2222199683821562  0.0864100026098289
  0.1249999521128992  0.0555599860957249  0.0864100026098289
  0.2499999943280624  0.2222199683821562  0.0864100026098289
  0.3749999464409617  0.0555599860957249  0.0864100026098289
  0.4999999886561249  0.2222199683821562  0.0864100026098289
  0.6250000308712881  0.0555599860957249  0.0864100026098289
  0.7499999829841874  0.2222199683821562  0.0864100026098289
  0.8749999350970866  0.0555599860957249  0.0864100026098289
  0.0000000000000000  0.5555599783168760  0.0864100026098289
  0.1249999521128992  0.3888900080300730  0.0864100026098289
  0.2499999943280624  0.5555599783168760  0.0864100026098289
  0.3749999464409617  0.3888900080300730  0.0864100026098289
  0.4999999886561249  0.5555599783168760  0.0864100026098289
  0.6250000308712881  0.3888900080300730  0.0864100026098289
  0.7499999829841874  0.5555599783168760  0.0864100026098289
  0.8749999350970866  0.3888900080300730  0.0864100026098289
  0.0000000000000000  0.8888900002512240  0.0864100026098289
  0.1249999521128992  0.7222199606033073  0.0864100026098289
  0.2499999943280624  0.8888900002512240  0.0864100026098289
  0.3749999464409617  0.7222199606033073  0.0864100026098289
  0.4999999886561249  0.8888900002512240  0.0864100026098289
  0.6250000308712881  0.7222199606033073  0.0864100026098289
  0.7499999829841874  0.8888900002512240  0.0864100026098289
  0.8749999350970866  0.7222199606033073  0.0864100026098289
  0.8724238427556585  0.2763977110626812  0.1713004268250478
  0.0029304562924820  0.4475526829305024  0.1705524586932281
  0.1251570775767399  0.6131866434604424  0.1716961744953400
  0.1298527669597759  0.9501569638892020  0.1741697496295504
  -0.0032860066290565  0.1183416485441774  0.1721653568171095
  0.7514569126353244  0.7774705325833102  0.1702856284965872
  0.1318480362572117  0.2867351823424150  0.1711492377478065
  0.0035088741556486  0.7808125668303871  0.1746604470353793
  0.2553958565474004  0.7869218787146984  0.1714119322023437
  0.8792524326984942  0.9491301982000857  0.1707826465947313
  0.3824299226295576  0.9556166830998299  0.1722785721666360
  0.8801454503022368  0.6213869829179458  0.1721749048235331
  0.2551292313338252  0.1214986672711152  0.1722225488912681
  0.5040081853215064  0.1187876356013909  0.1734109745348834
  0.6274671888096375  0.9446851372383959  0.1739233094665919
  0.2541120408356614  0.4527837760704569  0.1714211174548162
  0.7524575064766590  0.1123756842608626  0.1737631028646322
  0.7521974591698589  0.4446465240416572  0.1714929880193307
  0.6318921891687658  0.2804435936754109  0.1733925804260215
  0.3808512810381265  0.2864574877090430  0.1718956363068519
  0.3801483226092402  0.6171740200153890  0.1716856573139551
  0.5036735181758804  0.7906435507729361  0.1754372152036955
  0.5034545638356661  0.4442637936265203  0.1747455034046687
  0.6251531552089413  0.6152798638852438  0.1723509863265573
  -0.0004910734492362  0.0099595785248324  0.2598330614843680
  0.1327231523251169  0.5130781574716882  0.2570425763369561
  0.8804402855165234  0.8447285493766091  0.2593899730706671
  0.2501415557610808  0.3443447327976443  0.2580094352706982
  0.8807737503105076  0.1766860204316568  0.2591276563758281
  0.6278416052538165  0.8439736063338295  0.2661528754167003
  0.7657253661477093  0.3436662707244529  0.2606211627421741
  0.2545221833411104  0.6839136008405304  0.2592172465444220
  0.1340586297106849  0.8474544178602078  0.2620816149147598
  0.7525762670812538  0.6792983780203904  0.2597891025086506
  0.0063298551972016  0.6770814997975085  0.2654586326545657
  0.0110570641272092  0.3372261244657585  0.2627836744507689
  0.2508913601410601  0.0177109079527681  0.2619737518364199
  0.8895333902793613  0.5162128748388015  0.2579418269391591
  0.4974712598402249  0.0171085872918330  0.2636945964826857
  0.3845220387779746  0.8506371220965155  0.2564450439908927
  0.6284496706092150  0.1797390664538109  0.2585754317388905
  0.3750167783728229  0.1880711833017024  0.2562151148181733
  0.1218212775533092  0.1722434524956680  0.2609956193958184
  0.7468458161232799  0.0102605053372385  0.2572647895739730
  0.3854307584672285  0.5186695253037965  0.2574995441075492
  0.6453617523447231  0.5098637879379324  0.2617473850787917
  0.5103380913904463  0.3458196310150068  0.2652604037623979
  0.5085207925894908  0.6806702145495808  0.2625115954296728
  0.4443702668565632  0.7426656600001451  0.5082820539295800
  0.4392018415019125  0.7853641343901302  0.4516545313920471
  0.1816967974454878  0.9499221714976075  0.4705687038134256
  0.2819659998108718  -0.0741117054009242  0.4336214271193062
  0.7107308901777682  0.6491746541231801  0.8713947148396087
  0.6369177899467585  0.6064203964875465  0.9143799218630313
  0.8616897349755844  0.6052461378512822  0.7623340591192903
  0.8287573163868006  0.6722378784388924  0.8059121517377322
  0.2703595084311822  0.1918038165938424  0.7794974853592004
  0.2574863310145463  0.1209005761745959  0.8218824959436286
  0.2082123701556179  0.5213281755783740  0.9089739537770009
  0.0681676761305923  0.5216154064909285  0.8960148452515919
  0.1888366329730086  0.7866055640213058  0.8208357996886644
  0.2610687750022870  0.8564622662839445  0.7815058531608085
  0.4967797905852906  0.1292441202104793  0.3401269053127693
  0.5844576997462315  0.1678030426683067  0.3810687504459171
  0.5642997369923256  0.1248902607760894  0.9218287778988080
  0.5336312032825754  0.2120342455411706  0.8895176212646423
  0.6386914510318955  0.0865655292449593  0.8422690595704165
  0.7634768671673221  0.0947960878831152  0.8125880848008059
  0.1693024695742342  0.2614430117676911  0.8728204898429640
  0.1787180866872808  0.3754777736247658  0.8762053105152329
  0.4024547077768982  0.4221522551248326  0.5847960670331580
  0.4949677977354695  0.3920738110573994  0.6248112485348125
  0.7166806477487779  0.3209356329905140  0.5273421414399166
  0.8403791122126899  0.3003373731998590  0.5599165320227292
  0.8243936383040664  0.7926362981010091  0.3786844346074977
  0.7398908698739000  0.7208754609606260  0.3546973508531089
  0.3617706609367164  0.7869631454769038  0.6959356988082471
  0.3552191817773401  0.8924568745272640  0.6991360066098674
  0.7655505031161312  0.7659433223903861  0.4972165679082040
  0.7910179125216641  0.8725731934122084  0.4930622674234982
  0.7536161652150695  0.1662052269162858  0.4177083642943407
  0.7291643688242926  0.2726835909592691  0.4222209648333391
  -0.1074736379094597  0.3841791306921976  0.8365176265497030
  0.0216695214167333  0.3391800036291071  0.8205618974114639
  1.1736154552672549  0.5910961330288707  0.7460082569946044
  1.2285693608367108  0.4929461931521276  0.7612534691324210
  0.3844559556781538  0.1912655208117431  0.3815101343694671
  0.2908916622564742  0.2116827991523758  0.3397342853872405
  0.5256214601656544  0.8385694547667643  0.9123058220565498
  0.4232349628895288  0.8636719093920769  0.8742217625214443
  0.5076193222040325  0.3537844461546995  0.8108185001784023
  0.4197502190572505  0.3576342986677551  0.7648755433194658
  0.7667764709488385  -0.0104246104029021  0.8577943877044242
  0.8316996654302855  -0.0379249273645855  0.9073205951734596
  0.1720836981005834  0.7518227023691100  0.7321589010614279
  0.0636836910000853  0.7299055945414311  0.7022423381164107
  0.3606732708908834  0.5800440221120547  0.5137111933296067
  0.4338186857741546  0.5491828318213737  0.4670154892416710
  -0.0663926671876674  0.4989153045225734  0.3423004435211636
  0.0012415629668311  0.5075801090738059  0.3952675075440067
  -0.0500658216149413  0.1739819128530208  0.8435975061418495
  0.8914859613032242  0.2451620718865632  0.8087591157851468
  -0.2466099775468403  0.4161288220861261  0.9192710011034010
  -0.2639286437935547  0.4907180326296842  0.8825092373172460
  0.7385709403187671  0.7131065256289463  0.5954444564195115
  0.6098912296643139  0.6650558511391157  0.6017486961329597
  0.4660688961430691  -0.1564602073762754  0.6228884294372838
  0.5746473984055309  0.8040451972111742  0.5861328998355552
  0.1584422122993423  0.6971936792547465  0.6357107808800101
  0.0947024358925915  0.6176431197077572  0.6072319835303367
  0.5618878876169419  0.2181513400198827  0.6105961534958483
  0.5346334114591437  0.1108732703024232  0.6293762293896863
  -0.1382723539472020  0.1488299154014587  0.5783395521562807
  -0.0204625334367288  0.1995250701411864  0.5993538864371840
  0.9449431250406199  -0.0916186270903666  0.3344539483446035
  1.0157948440440472  0.9426012719909092  0.3838133365883590
  0.9224173660166064  0.8343838075886409  0.7235170463162627
  0.8578785033911062  0.7343823571735371  0.7347143030266400
  0.8765068154971917  0.7673702231054954  0.6476806784654959
  -0.0383776422702626  0.7240800989914086  0.6006786119901315
  0.3933079285817960  0.4037447769166242  0.5065095844980305
  0.4781720886242526  0.3244361676270153  0.5258319689169663
  0.5924782077230244  0.8921875359451725  0.7534493073848674
  0.6393966533135038  0.9840037227211729  0.7748481711164805
  0.6359197416115158  0.7165956795840823  0.7773620613675413
  0.5877445188364130  0.7865941831526656  0.8227596285860143
  1.2009337605446573  0.0154803282325930  0.3725265604166468
  1.0942904065105803  0.0420358628156004  0.3390902193091559
  0.6562268820346957  0.6408890367855694  0.5210782829044314
  0.6348167433124425  0.6681005275360193  0.4640090776457495
  0.8601607297392916  0.0217576895063396  0.3836199025604142
  0.8255587504369335  0.0869303114592560  0.3404245929565984
  0.3572943289753829  0.5907443435591992  0.8463594670472737
  0.3845474093319784  0.5931701331353263  0.8990071186834687
  0.8076878062732992  0.7769272769683098  0.8965700461950404
  0.8064934955647103  0.8217740214864148  0.8476331074769803
  -0.0059319441822171  0.5639367818044281  0.8342928444877910
  0.0424480233014901  0.6504793271762040  0.8685658897623066
  -0.1218667578424067  0.0145517867309437  0.5838178753308648
  0.7376517942568165  0.0300276199125221  0.6033209001301246
  0.1217152289365324  0.3132686643777849  0.6624221089100762
  0.2034687738312891  0.3981442015353954  0.6472198974737339
  0.5531309395523385  0.5603287658173346  0.8323127384451511
  0.4946279141372880  0.4877782197215391  0.7950447376508732
  0.6359753177872158  0.3519395221893118  0.7505739817852288
  0.7600587453635362  0.3116231042222148  0.7365982546719262
  0.2289492927648392  0.7187502742596960  0.8875548644666316
  0.1168099810323239  0.7771618579472297  0.8996141428679630
  0.2583702209886362  0.1286657625172723  0.9060120764915418
  0.3894292407389933  0.1125440557702461  0.8926429682060449
  0.9615537297275101  0.5480227252452611  0.6689072533938406
  1.0312680185184224  0.4596248170119338  0.6488037684373265
  0.1480328527211179  0.1702455120316517  0.6446175837742326
  0.0362350190905097  0.1876671705594150  0.6824261708697318
  -0.0289619506066028  0.5096529615798271  0.5707081793015586
  -0.0856358918625834  0.4315088427453522  0.5374532426956898
  0.2183923837373337  0.3555230777923865  0.7269471599680669
  0.2316489664162536  0.3430130532528401  0.7907690450429168
  1.0246878822078289  0.5137313557718891  0.7480272270263352
  0.8990347257127590  0.4650951929334306  0.7491545294707256
  0.6238113683672836  0.2223006272351945  0.4661650633881869
  0.6318824540606386  0.1672371905203262  0.5126496402468986
  0.0685362378738186  0.4957118148968143  0.4856613968819159
  0.1947603708662737  0.5239049221066445  0.4583447612971966
  0.4614126281494166  0.5379065950384296  0.6236631137547898
  0.4717983713926359  0.6140979408320444  0.6667049875243432
  0.3162545312039563  1.0208331380096916  0.7508775658516963
  0.4398663986432077  0.9712130120727821  0.7508552138231241
  0.1114735981827227  0.9619255329180986  0.8774302643304471
  -0.0334637936003799  0.9843072818780130  0.8655801771258926
  0.4755985256696212  0.7170125543807845  0.7424680808608148
  0.4089186751123375  0.6240323897352164  0.7499701727975435
  0.0834151067077602  0.9071560794479474  0.7584876123939845
  1.0286135764197957  0.9987556254069149  0.7401411863586933
  0.0059853341706440  0.1672136351601189  0.5241844197803531
  0.0539215498781415  0.1025250192271534  0.4785659800721241
  0.2462581464515204  0.7821880271933875  0.3847132443497310
  0.3073829599225995  0.8471674169837867  0.3476929284490438
  0.6592813152491745  0.3562788048238342  0.6670974594411846
  0.6881357663312532  0.3681929158104728  0.6090396204581742
  0.4130894388506626  0.6646003042338130  0.5845013903310894
  0.2792168217140338  0.6890274706048385  0.5607459174342686
  1.0218973677151184  0.9270988358674461  0.5225716880407617
  0.9561125416723756  0.8950279577414100  0.4759198657204111
  0.6386124183265660  -0.0242721398081304  0.6761928101995516
  0.5801663839360368  -0.0396089215328611  0.6259748477129974
  0.3051448467959209  -0.0055231961713460  0.8836808075698829
  0.2749917373840681  0.9230861748907057  0.9245840968336865
  0.0567794784342864  0.1075706643734888  0.8834385958181924
  0.9974854660119078  0.1843134046359931  0.9139856129046517
  -0.0503978994557651  0.8679804946773650  0.6004607452586039
  0.0606116492803520  0.9439969226666222  0.6084507053442537
  0.1336450219892943  0.9468307376364414  0.6781756049391736
  0.2392295955004719  0.9007378898520868  0.6524982900051731
  0.6196901046233303  -0.0155972916427852  0.5073233426835657
  0.7486550463385735  0.0230164844414282  0.5190762116239812
  -0.1922867867623721  0.3771240001533634  0.4671937319566434
  0.8522371383706526  0.4241317363630674  0.4152934610039558
  -0.0353186719833093  0.1441987813915375  0.7667392723154940
  0.1006334647168981  0.1223101212477953  0.7605385690768235
  1.0738348506832800  -0.3020737541248956  0.3476684074015046
  1.0558543450949116  -0.2067894620710621  0.3739846402369825
  0.4093720685426060  -0.0448858462771881  0.5169861644141590
  0.4955873135388669  -0.0489430959487604  0.5605972750013462
  0.3530026628295652  0.1383652723300944  0.6347819970756632
  0.2487433496838694  1.0582235724747666  0.6433971339632756
  0.4627258230919167  0.3752378204819319  0.8928692558560321
  0.6094629149558263  0.3717652934608453  0.8817407568965159
  0.5337592242014171  0.3427605513042531  0.3648068331115583
  0.7218826534964138  0.4458814596969466  0.3526058623825241
  0.6989866370135752  0.6056983456154662  0.3506775877312786
  0.3187873428507769  0.5802982068375572  0.3437763989740001
  0.4905454732784295  0.6667645108407760  0.3633581998810382
  0.3238902121047389  0.3391941602809646  0.3651892637131746
  0.5295955494749597  0.4024121837749750  0.3390182312139287
  0.6344053023883177  0.4678404715698073  0.3383083219033435
  0.4112859873170417  0.4530402417777999  0.3457331794878988
  0.6209477732166825  0.5656565738122415  0.3385749666870190
  0.4069190252951110  0.5499957306940937  0.3345963171400389
  0.5083989755629263  0.6148811282197196  0.3355860448993842
  0.4937982317305586  0.7611459968631402  0.4764497811740840
  0.2691008114466293  -0.0384101768905827  0.4645245005519540
  0.6638953728640037  0.5933933163284304  0.8792354904493763
  0.8047168644026034  0.6576043063541269  0.7711025154971789
  0.2417894303029618  0.1266391467538887  0.7846551845776748
  0.1329562304024527  0.4879897235573862  0.9186764164629919
  0.1879862337761919  0.8221993748191880  0.7900192508934277
  0.5089661551328848  0.1359205566793380  0.3758348699085098
  0.5348233822977404  0.1445789520763902  0.8875196663057768
  0.6896990789956995  0.0579641211807098  0.8167325737212974
  0.1866562512952161  0.3220726801591905  0.8554207890444038
  0.4130258672253085  0.4231228711127285  0.6216903807361188
  0.7911875076793247  0.3474047419542575  0.5428866042636086
  0.7561708613592987  0.7485169813840068  0.3867846487941558
  0.3503479767159868  0.8391060407696667  0.6750556212704353
  0.8283008772116808  0.8111638718176041  0.4918414930764105
  0.6890495437849551  0.2141096015741655  0.4146499019380057
  -0.0578200578583511  0.3570859866969275  0.8081314115056192
  1.1717963503844373  0.5405038263173404  0.7689985765370086
  0.3002343279993689  0.2221945780390056  0.3764400807673384
  0.5036397170503688  0.8327490368317502  0.8778296050692018
  0.5084720872430264  0.3582428677038090  0.7735578626381244
  0.8351585606079267  -0.0521380569944049  0.8703634630584886
  0.1479318547867512  0.7085416728148892  0.7035199596853644
  0.3603213870947492  0.5351131061207113  0.4854681533720998
  -0.0743148597997494  0.5123679313793756  0.3790619408498848
  -0.1167314651265502  0.1792043551500255  0.8178693733966342
  -0.2386843773572351  0.4242568742371445  0.8833607108151870
  0.6594714653552357  0.7058674154782060  0.5799175813277077
  0.5219164488968273  0.8596060814500882  0.5968234175972517
  0.1236511182650492  0.6810596866430130  0.6030443653127393
  0.4983889286395159  0.1686555369709004  0.6153607875498824
  0.9235574980716513  0.2000704806117783  0.5709042047559569
  0.9460129579307056  -0.0957668847647956  0.3721549268063891
  0.8986904335549623  0.7724149265567987  0.7078153012274546
  -0.1214212383318586  0.7585862901478845  0.6108768334745133
  0.3982609864502305  0.3532000602801653  0.5319932718146494
  0.5972771852057128  0.9591219255317536  0.7431115154585530
  0.5808104453801801  0.7719469760879147  0.7861887100994743
  1.1194909812688354  0.0416990077578265  0.3753981914938964
  0.6904604668416501  0.6391833954784296  0.4867673855454065
  0.8234964387479025  0.0860604296017039  0.3766876249517296
  0.3134576380746377  0.5978902250902196  0.8792602188755181
  0.8022971967005961  0.7618959090680465  0.8622396751679620
  -0.0115746570874894  0.5925597744923699  0.8683001944084029
  0.8025183573479189  0.0553443694648969  0.5808815903413187
  0.1375833460608653  0.3806391965917771  0.6702851094828404
  0.4869293043015903  0.5552719521860890  0.8061355141776241
  0.7092424591262557  0.3637276806555930  0.7286369750507413
  0.1533909096433003  0.7372510881256950  0.8729276391090026
  0.3089000521348801  0.1070930112835994  0.8780011419431087
  1.0061617211108238  0.5225561477801430  0.6389299874702241
  0.0696434471382421  0.2076826201797000  0.6521187771201080
  -0.0422265588653739  0.4899895414117307  0.5353471693256792
  0.2692456953465724  0.3382771392025163  0.7571982371977088
  0.9392541984678823  0.5223032691105391  0.7414400850319784
  0.5992800323648499  0.2285544426512064  0.5041328638589464
  0.1044222186517534  0.5140638571365982  0.4527508109155294
  0.4906123027313440  0.6007218760695888  0.6300627848169751
  0.3478509475795045  0.9588826037207128  0.7523640087841668
  0.0521112934611322  1.0084228744640640  0.8633986368911278
  0.4278465836976375  0.6736367047230263  0.7229377366754404
  1.0251694359654309  0.9317097531241981  0.7329621117182181
  0.0763990469038807  0.1588150822329963  0.4970560707746811
  0.3122020707021236  0.8302220849591245  0.3838446181895370
  0.6287724407239806  0.3426492754776392  0.6311763643769841
  0.3648979246491600  0.6793681045700467  0.5511115200217929
  1.0279903281571414  0.9294069175874837  0.4845337616353588
  0.6316156771418815  0.0048546805373472  0.6429817231367901
  0.2821269194269894  -0.0719480009268076  0.8879156547546805
  1.0628261819957983  0.1786535849311592  0.8881534124528530
  -0.0124945924002218  0.9263272417806940  0.5871292564106942
  0.1845108620570496  0.9525175245469207  0.6485300683440010
  0.6990788824951062  -0.0089811752675967  0.4933125938099691
  -0.1597308419047415  0.3643623614389325  0.4326070957864109
  0.0205178091844498  0.1189791604400945  0.7414731697820820
  1.0838809435219874  -0.2716988911070685  0.3823448801988099
  0.4712052590215358  -0.0067200361505064  0.5328876784826053
  0.2706148299463157  0.1198381137744454  0.6286670866260979
  0.5276309685401199  0.3495327884000330  0.8712783402970645
  0.3131286775198630  0.4093380562924732  0.3614911092655477
  0.9330206742141185  0.6583115275565276  0.4527944163885385
  1.0303841010631420  0.2368091638298228  0.3904377629118564
  0.6212724046099570  0.9417926707952186  0.3866067533795661
  0.3322843292364559  0.1661242938926374  0.5281164899959032
