combine
1.000
11.0985002518  0.0000000000000000  0.0000000000000000
0.0000000000000000  14.4173002243  0.0000000000000000
0.0000000000000000  0.0000000000000000  26.7964000702
Pt  H  C  O  K  
96  166  6  81  4  
Direct
  0.0000000000000000  0.0000000000000000  0.0018699899937576
  0.1249999521128992  0.1666699702868031  0.0018699899937576
  0.2499999943280624  0.0000000000000000  0.0018699899937576
  0.3749999464409617  0.1666699702868031  0.0018699899937576
  0.4999999886561249  0.0000000000000000  0.0018699899937576
  0.6250000308712881  0.1666699702868031  0.0018699899937576
  0.7499999829841874  0.0000000000000000  0.0018699899937576
  0.8749999350970866  0.1666699702868031  0.0018699899937576
  0.0000000000000000  0.3333300219343480  0.0018699899937576
  0.1249999521128992  0.4999999922211510  0.0018699899937576
  0.2499999943280624  0.3333300219343480  0.0018699899937576
  0.3749999464409617  0.4999999922211510  0.0018699899937576
  0.4999999886561249  0.3333300219343480  0.0018699899937576
  0.6250000308712881  0.4999999922211510  0.0018699899937576
  0.7499999829841874  0.3333300219343480  0.0018699899937576
  0.8749999350970866  0.4999999922211510  0.0018699899937576
  0.0000000000000000  0.6666699625079541  0.0018699899937576
  0.1249999521128992  0.8333300141554991  0.0018699899937576
  0.2499999943280624  0.6666699625079541  0.0018699899937576
  0.3749999464409617  0.8333300141554991  0.0018699899937576
  0.4999999886561249  0.6666699625079541  0.0018699899937576
  0.6250000308712881  0.8333300141554991  0.0018699899937576
  0.7499999829841874  0.6666699625079541  0.0018699899937576
  0.8749999350970866  0.8333300141554991  0.0018699899937576
  0.0000000000000000  0.2222199683821562  0.0864100026098289
  0.1249999521128992  0.0555599860957249  0.0864100026098289
  0.2499999943280624  0.2222199683821562  0.0864100026098289
  0.3749999464409617  0.0555599860957249  0.0864100026098289
  0.4999999886561249  0.2222199683821562  0.0864100026098289
  0.6250000308712881  0.0555599860957249  0.0864100026098289
  0.7499999829841874  0.2222199683821562  0.0864100026098289
  0.8749999350970866  0.0555599860957249  0.0864100026098289
  0.0000000000000000  0.5555599783168760  0.0864100026098289
  0.1249999521128992  0.3888900080300730  0.0864100026098289
  0.2499999943280624  0.5555599783168760  0.0864100026098289
  0.3749999464409617  0.3888900080300730  0.0864100026098289
  0.4999999886561249  0.5555599783168760  0.0864100026098289
  0.6250000308712881  0.3888900080300730  0.0864100026098289
  0.7499999829841874  0.5555599783168760  0.0864100026098289
  0.8749999350970866  0.3888900080300730  0.0864100026098289
  0.0000000000000000  0.8888900002512240  0.0864100026098289
  0.1249999521128992  0.7222199606033073  0.0864100026098289
  0.2499999943280624  0.8888900002512240  0.0864100026098289
  0.3749999464409617  0.7222199606033073  0.0864100026098289
  0.4999999886561249  0.8888900002512240  0.0864100026098289
  0.6250000308712881  0.7222199606033073  0.0864100026098289
  0.7499999829841874  0.8888900002512240  0.0864100026098289
  0.8749999350970866  0.7222199606033073  0.0864100026098289
  0.8741905830678750  0.2799495997730022  0.1730801345759048
  0.0039408593600659  0.4429595095020692  0.1702191696291522
  0.1188953013616401  0.6128089403526982  0.1719241862537849
  0.1273224160958882  0.9460628308627903  0.1679460793282002
  0.0036329818610817  0.1124744472177163  0.1684830105936802
  0.7466373339096922  0.7814303463287282  0.1768403144820129
  0.1273999136929046  0.2773681454839897  0.1731210379583415
  -0.0030270085451006  0.7796785859153997  0.1726467946022673
  0.2560394334936496  0.7777825058120025  0.1700233385889284
  0.8767871282087670  0.9400006303370158  0.1719554578013736
  0.3841882300816690  0.9495564901968108  0.1735736572866179
  0.8708044483336883  0.6125566244514263  0.1685330463819386
  0.2458161683293678  0.1129017623671655  0.1732879514798699
  0.5074945366322363  0.1143197944870447  0.1719527490307995
  0.6249952787967913  0.9477078599133768  0.1739190060377844
  0.2476471891465006  0.4482643057475613  0.1748334855400983
  0.7532787559692219  0.1140765997872430  0.1711076235049576
  0.7429412013179624  0.4508446861392589  0.1718801421770840
  0.6263365210964061  0.2857383143798697  0.1751854845800921
  0.3756329196662279  0.2854821874807589  0.1697049355094980
  0.3793952054122888  0.6165397494544842  0.1749081286262874
  0.5024993997720999  0.7822621329818068  0.1752899723953458
  0.4934015715332238  0.4539417826209386  0.1715563702645409
  0.6255051094019743  0.6144518754883678  0.1782890870857319
  0.0120666053666377  0.0137950464584750  0.2561973481256790
  0.1180175168521142  0.5146049955313478  0.2564592159691810
  0.8783212856637114  0.8431898482845274  0.2620217035835439
  0.2459908271982258  0.3424436574663694  0.2572719799838600
  0.8769340798295264  0.1701225239428685  0.2574576651686969
  0.6174603732958037  0.8499699560147697  0.2625259910574060
  0.7524785180633337  0.3413980110301115  0.2595943498222327
  0.2444724250702206  0.6864109157011390  0.2578725724126131
  0.1307168318318243  0.8520418601670917  0.2534924718359491
  0.7428150275676151  0.6839982842195963  0.2634804237436250
  -0.0024112755771357  0.6799215677549606  0.2589875398829348
  -0.0048960051148521  0.3450425644612343  0.2592983560850433
  0.2570603801389553  0.0141437230499166  0.2560376816709019
  0.8714108677009275  0.5108936501221834  0.2537439401519299
  0.4988268091719970  0.0139552125619808  0.2626501249258095
  0.3695190635540929  0.8423797454068531  0.2586105538895351
  0.6215241901788717  0.1830284529174477  0.2607424306920288
  0.3830512381535972  0.1775260029049071  0.2580289713202656
  0.1183886286876374  0.1837443267800592  0.2629983763803165
  0.7531649333381150  0.0084509843663130  0.2597559246229021
  0.3613855197371830  0.5167776224110464  0.2628373259635182
  0.6256052966322103  0.5082537169302638  0.2626962970047738
  0.4956965141400745  0.3433475077779580  0.2633916954781203
  0.5086188954119711  0.6771080688287446  0.2704421318279680
  0.3192547422004465  0.7266703616008433  0.4960960298388611
  0.2994646763972423  0.7456700057254977  0.4362055449529926
  0.1766020125270634  0.9368101747812335  0.5069004563678549
  0.2703568889691522  -0.1248362793379636  0.4793271006721513
  0.7259060080927032  0.6946463233262005  0.8822661638154720
  0.6539814312949925  0.6304196256439748  0.9199684004985079
  0.7736408351756757  0.6018014475259539  0.7677471710641783
  0.8524020916308648  0.6334631916110649  0.8166576530679730
  0.3996965696406184  0.1519399293154664  0.7705253405572808
  0.3435732031795529  0.1282617403557456  0.8270044688967281
  0.2149557592984763  0.5360288721999767  0.9060314237694838
  0.0711958076562504  0.5163758374644974  0.9008667330782925
  0.1939859020186827  0.8104723653257578  0.8326542740348580
  0.2944863901832073  0.8651875726064122  0.7989248627918479
  0.4339881633753913  0.0947548186377820  0.3407876446640857
  0.4617068803029425  0.1463680423012387  0.3887202197911601
  0.6436310585514888  0.1712499395232560  0.9079961558925330
  0.6232739526656411  0.2738865601650270  0.8862165302871878
  0.6358603848529401  0.1623151926638623  0.8125278341254999
  0.7459742314604395  0.1732196237538817  0.7815619818869083
  0.1309660719487086  0.2524084326042177  0.8948629413831940
  0.1644786341383322  0.3514843128368050  0.9049579269518276
  0.3853061548839852  0.3342327619756537  0.5835000185636242
  0.4693045734945360  0.3524875912228387  0.6278713216261674
  0.6775285362885358  0.2732083351334418  0.5764683853813168
  0.8126091570288790  0.2813896261078224  0.5960643909762610
  0.7809958098162143  0.8326107870021017  0.3903977062327059
  0.7105248774329715  0.7845535293518650  0.3474333678781544
  0.3917562271978899  0.7540923419681277  0.6933551742930567
  0.3798205812101795  0.8560019072849128  0.7056871213021436
  0.7608890083171732  0.8068866037895677  0.4776208835205853
  0.8265998031862115  0.8981343694275947  0.4874942096653993
  0.6136279553442791  0.1956877480739971  0.4068440186159167
  0.5716457901481813  0.2227326346015599  0.4620670981386638
  -0.1632936318585992  0.4433323772454307  0.8326164538912064
  -0.0501444605193156  0.4417685808585038  0.7986011343702214
  1.1005042236962683  0.5804133875908303  0.7690368133933518
  1.1618866512534973  0.4814937248930768  0.7855068651146205
  0.2919288387072413  0.1909203642205241  0.3763803767848703
  0.2208442988414115  0.2250738436195360  0.3283390082380693
  0.4377423773461701  0.7898161206428557  0.9203133849880580
  0.3979742167040674  0.8634423029852949  0.8841702731236751
  0.5100231206357776  0.3616029974053705  0.8317968844810444
  0.3926434228438425  0.3756984010203608  0.7969310567746204
  0.5931779074773891  -0.0584083314489545  0.8688748378739304
  0.6665237259602041  -0.0302295467056601  0.9138242979000737
  0.1816789937516988  0.7417725190237023  0.7544602171014350
  0.0487981892068853  0.7353499119711052  0.7432296994568403
  0.2281521437357562  0.5030635730034639  0.5101829491120135
  0.2352792160883627  0.4865633277356957  0.4512395844039864
  0.0061660779877805  0.5544246425920633  0.3224436828926443
  0.0852755799727539  0.5053931114036835  0.3592061064950415
  -0.1086882847711213  0.2090963690774059  0.8370704932430345
  0.8801856969112258  0.3030506107541459  0.8095589814441104
  -0.1409099305238437  0.4194751575337770  0.9293384542834277
  -0.1833840390614857  0.5086525000942788  0.9106123881706129
  0.7722599297242825  0.7219564464750798  0.6006873015267630
  0.6987649305447573  0.6331899113201156  0.5893291561116080
  0.4832951997662989  -0.1797049783171726  0.6310559667865785
  0.5994384473903139  0.7897117879538920  0.5968560550260745
  0.1343789429079049  0.6617207248427959  0.6764793322204158
  0.0788258655720725  0.5913368106554733  0.6430496156594885
  0.4739928887010488  0.1618257217372525  0.6592880424951850
  0.5229636978977106  0.0674259254767789  0.6443330281891531
  -0.1026411102090344  0.1474781644913158  0.6014615630971846
  0.0001505285004367  0.2180840105764433  0.6168047008516184
  0.8690305685162951  -0.0394112211690166  0.3452057945345850
  0.9813335822678924  0.9754799334133194  0.3786589593534259
  0.8814004227295016  0.8409722201015399  0.7391512193060107
  0.8598037995676354  0.7394039780438563  0.7624434945021147
  0.8852029253237736  0.7451242198031973  0.6715202827454164
  -0.0265208022094934  0.7012638636295642  0.6305678632142429
  0.2844574809454977  0.3552810446623474  0.5056057837697031
  0.3948917067861664  0.2942522736017989  0.5012866765352687
  0.6851561297182219  0.8918569435925233  0.7771773012062124
  0.7118054988842973  0.9935371091847729  0.7850631465864283
  0.6704718101973417  0.7385650346347695  0.8047436079625248
  0.5539642002713713  0.7868725085074526  0.8259937995520009
  1.1826624308154794  -0.0128498037578318  0.4172957907071784
  1.1836968580209155  0.0011332152653978  0.3595526376214493
  0.6991073912208640  0.7094796204603998  0.5167031936837573
  0.5887808212321475  0.7395370573700928  0.4841100173909733
  0.7629799137704787  0.0635488905929670  0.3930622451115460
  0.7206228544260184  0.0860694907988745  0.3425187497632213
  0.3675357197328022  0.6088761069360483  0.8599933270599210
  0.3614587666878121  0.6208966717299964  0.9235894708678785
  0.8535869208872201  0.7887130425940824  0.9101138988897763
  0.7747864713527745  0.8416990355133698  0.8711160367753747
  0.0174144248966120  0.5871356892487126  0.8395793921781107
  0.0042869667451045  0.6742841308815153  0.8761074965889916
  -0.1218929838182950  -0.0071567385359772  0.5998758092164886
  0.7609859686339354  0.0242593780013332  0.6252182928419369
  0.1526691869493984  0.3004863634384322  0.6633623361545566
  0.2399981596133228  0.3805898840305528  0.6558197783269936
  0.5480792217140741  0.6019270629582349  0.8375591679293989
  0.4968183185476548  0.5157647770396648  0.8010528820612502
  0.4994913256321200  0.2954350895961040  0.7625016912895904
  0.5715716696290718  0.1955658026492194  0.7533266720087948
  0.1900721222993954  0.7234182205848039  0.9022358099133856
  0.0998798714376040  0.8101437238792812  0.9046008973517718
  0.3296728098831722  0.2361661014148241  0.8878335351865954
  0.4651730207207670  0.1919658270509780  0.8823839943707603
  0.8827339800808742  0.5053284987379618  0.6752275981997218
  0.9889532246863610  0.4539559091284561  0.6474481357700714
  0.1311953013258569  0.1387079546161768  0.6396583805658962
  0.0674688798586598  0.1698275015715627  0.6873043526276379
  -0.1760096435086518  0.5068036941607604  0.5952495662519398
  -0.2711358583887905  0.4380113682973962  0.5725126987658644
  0.2062667741282179  0.3456443438488465  0.7496508294574835
  0.2066918186290940  0.3199160910671777  0.8092449954878640
  0.8015197159956151  0.4470728427806567  0.7526045293236091
  0.7156418266794060  0.4410310762470594  0.7064930281718510
  0.6293378606958351  0.1212888924552379  0.5230189314790072
  0.5312293538889443  0.1690758820428430  0.5604961537577126
  -0.0934466925233250  0.4715177575439622  0.5228800838207303
  0.0487874349069986  0.4719522739792544  0.5003922376279076
  0.4317850524464137  0.5028768557292088  0.6183609191940359
  0.4594859719152526  0.5862703115631616  0.6542622006900477
  0.4022033121886026  0.9979593897649149  0.7777409716231501
  0.4948479526870554  0.9157788125023972  0.7697083273822780
  0.0111440417618534  0.9781191446600872  0.9263463661040470
  -0.0616717028311092  0.9273723654353019  0.8803633781178999
  0.5670742757679593  0.7074528137250619  0.7274213924308869
  0.4585803974167190  0.6554547894530524  0.7517344204120047
  0.1196907139038499  0.9075200010156732  0.7778206551774488
  1.0680179836980737  1.0087748016016738  0.7582185526142712
  -0.0497921991406338  0.1482165855988999  0.5133193576698728
  -0.0230953822214338  0.0542094254153570  0.4839403684870873
  0.1982666959838217  0.7876195791470614  0.3694140692431496
  0.2844605877256227  0.7474823920595187  0.3324563789114046
  0.5649199748121954  0.3110223728116694  0.6996313664255601
  0.6549496909387454  0.3451685997085919  0.6556274379086352
  0.3551991140569323  0.6560586964442743  0.5809395647369812
  0.2240092221916906  0.6504271660164654  0.5772927386206375
  1.0166316215355369  0.9133585224371888  0.5522017240687346
  0.9992616961198273  0.8833200443752515  0.5007507691125411
  0.6740072475726426  -0.0402945487894358  0.6970091319792941
  0.6268785953824363  -0.0764206829058729  0.6452821368243942
  0.2879678720628634  0.0656446913829840  0.9009143091518195
  0.1772404232257387  1.0009314817331310  0.8846118176471559
  -0.0213138522893339  0.0934009112559339  0.8835748974367094
  0.9395839392451919  0.1715477466184265  0.9234584922442274
  -0.0967864593980420  0.8360534913869588  0.6132540102233721
  0.0316188291515411  0.8908709275160850  0.6244852790658869
  0.1108803510636868  0.9280277539236456  0.7009693622834393
  0.2205476859004453  0.8714995893213460  0.6705648478387526
  0.6335819682086823  -0.0207535197190171  0.5037236914674582
  0.7404204343075310  0.0273235465081068  0.5382480267952033
  -0.1175685165199124  0.4128676104051240  0.4297653908409513
  0.9027200466274805  0.4383948930706877  0.3752299622210019
  -0.0015586807863697  0.1520216667754392  0.7726212643736468
  0.1468080939436610  0.1363701153483789  0.7727829382809123
  1.0461636986327865  -0.2508876757177761  0.3394104590830628
  0.9987813851427533  -0.1717775109396561  0.3647454280311859
  0.4404564020266773  -0.0858199432591808  0.4984238344072580
  0.5012914561134217  -0.1058873363909657  0.5500952071988520
  0.3126305054268269  0.0725693997574222  0.6257453919695434
  0.2029089102678322  0.9975099828441186  0.6353257227463440
  0.5607146449350859  0.3950248002397077  0.9277389749097911
  0.6765267463396463  0.4139183412953962  0.8930552387786240
  0.4916238402224730  0.3330086251382828  0.3670976609667621
  0.6888922811944788  0.4096569872454577  0.3546848177628759
  0.6911401836888680  0.5845326568906332  0.3557403202156644
  0.2946843362615204  0.5828531153035621  0.3546716759453527
  0.4994056544442633  0.6647436234522418  0.3691018011855717
  0.2727932612344602  0.3484891215091515  0.3634459062518136
  0.4873410992194901  0.3958835406354395  0.3454397750052293
  0.6063975995052560  0.4451930782007167  0.3432011983291515
  0.3817849044435339  0.4547498279982808  0.3474433217450657
  0.6087310869055739  0.5460023900960419  0.3437626717756064
  0.3780824164075188  0.5538233853549149  0.3392334046135232
  0.4946254523632302  0.6085881950985044  0.3413973205555190
  0.3355161078899891  0.7675879507556910  0.4667360698465140
  0.2637794440672466  -0.0589479049113208  0.4917441056962712
  0.6875443253571508  0.6339511160137311  0.8870523807425222
  0.7988126130070716  0.6548279749760416  0.7894820086943904
  0.3432039166627250  0.1082939780617495  0.7896462388442788
  0.1498216078366373  0.4911039253359082  0.9130736874954182
  0.2237404323252835  0.8256193099341478  0.7979045759164328
  0.4198447086708205  0.0879832642079553  0.3777493153401948
  0.6167051896214473  0.2086468059969981  0.8774962308854832
  0.6690916690924645  0.1370018311591275  0.7821281029987089
  0.1901574481342843  0.2993017679916915  0.8825886168195085
  0.3888078240841726  0.3657232540744990  0.6145486268326599
  0.7283832521505696  0.3074158608301570  0.6005368095692822
  0.7113633763642565  0.7931477752281603  0.3832507938303576
  0.3753506995347744  0.8157156166920981  0.6764307980592377
  0.8455591722023876  0.8385347450990585  0.4746950948476811
  0.5549265213109431  0.2283196840246020  0.4264267728898226
  -0.1251002366085291  0.4087895038189199  0.8033687462346999
  1.0890835514410742  0.5229467853483687  0.7913625298564864
  0.2367746898571999  0.2428326997310610  0.3665225233042542
  0.4467808652431029  0.8065869565995398  0.8844021303203030
  0.4794749553064113  0.3770003957078518  0.7981186410701463
  0.6720363471533313  -0.0469661128897575  0.8783686494543491
  0.1260889325900623  0.6980539992319289  0.7394264443802997
  0.2166990298450407  0.4574669809319468  0.4839203956624318
  0.0092008726569555  0.5419262535111249  0.3596357407918068
  -0.1317811424802909  0.2349725879599959  0.8057214100863682
  -0.1683612811286777  0.4468617490701386  0.8960347036578931
  0.7030907483229039  0.7018267509089954  0.5818896169056794
  0.5463102130683505  0.8441577666591813  0.6066392010909648
  0.1222197992904496  0.6489818362337868  0.6402055721125811
  0.4659138829015528  0.1151138193753317  0.6316454061910739
  0.9326615370595868  0.2086128113799495  0.5904554848841644
  0.8938368769411968  -0.0351812614503994  0.3802731060927896
  0.9014426214548584  0.7741591938751425  0.7357697986426893
  -0.1020748600349191  0.7393551731713036  0.6347080588416166
  0.3268565579039977  0.3021384658452236  0.5199023855145785
  0.7115574710933755  0.9499102707951645  0.7583320507667108
  0.6115625057447908  0.7891437494187579  0.7969063099243622
  1.1500262242125869  0.0219331411207644  0.3904998547449250
  0.6701124724751704  0.7218339037262632  0.4822126508093875
  0.7104840477361910  0.1087293500316985  0.3780712503231553
  0.3102468056115560  0.6170097404024828  0.8917667129427078
  0.8397075295005310  0.7957138892803350  0.8736526410290033
  -0.0310478685031443  0.6114241264909219  0.8675742310159682
  0.8170594285772343  0.0422183427361868  0.5971484340426393
  0.1633804853593543  0.3688573228111576  0.6728341960512247
  0.4810962642483183  0.5755042396644586  0.8181771628190340
  0.5055468500701268  0.2386060810679292  0.7383792928328348
  0.1197532288549026  0.7567373111445154  0.8838626811307801
  0.3736709898823845  0.1767822280279766  0.8825480276882390
  0.9308226677225617  0.5034855843166324  0.6439714148651762
  0.1070462715543316  0.1971817067670190  0.6596048949185613
  -0.2429849485891237  0.5023977705126605  0.5712752642331237
  0.2183406284832932  0.3706639624173786  0.7838809646621022
  0.7695807979924814  0.4842061689631593  0.7248360075053556
  0.5768352631664532  0.1806856896278915  0.5294793354939675
  -0.0365929142123624  0.4896413260370146  0.4950299123109410
  0.4308837163854106  0.5706980456529606  0.6209636104293246
  0.4153085672681265  0.9358359499068478  0.7621502542877794
  0.0085997264976879  0.9663446208200496  0.8892983080962837
  0.4916676544846676  0.6705765414044018  0.7181422377590427
  1.0615636835156339  0.9391843887094631  0.7535799793815097
  -0.0197008639311008  0.1246228720389456  0.4816220241409344
  0.2858753022135062  0.7794176747016859  0.3663209271873935
  0.5911739445638960  0.3654742275754913  0.6794442216940715
  0.2932022292536540  0.6546323752273976  0.5542473824727140
  1.0400146583253871  0.9343098481986434  0.5185710773498048
  0.6542414987216281  -0.0177800889217763  0.6624097614343284
  0.2623759522578488  0.0016449721189843  0.8970602046665362
  0.9777195635996048  0.1600887635335389  0.8910197838310523
  -0.0436476348073637  0.8936793091457992  0.6045465994783190
  0.1537492446173753  0.9157830028708477  0.6670795464491879
  0.7023837052700619  0.0251979983594771  0.5047534735101098
  -0.1258157680064504  0.3877013188557215  0.3953461355274104
  0.0699516066032514  0.1276776696442398  0.7542184988040879
  1.0403969337593415  -0.2309152402534255  0.3742756055785796
  0.5195313313945137  -0.0982252612256160  0.5134872698852530
  0.2339224791727098  0.0481584630061146  0.6127481770754682
  0.5915813937865302  0.3926787059728359  0.8927078899714852
  0.2812462666019904  0.4200148433334030  0.3692124011502026
  0.9106845358822933  0.6577007660711588  0.4342549455753498
  0.9394335045592326  0.1980297701637562  0.3840602568643164
  0.4713042150764156  0.8874904389473683  0.3775621067641601
  0.2535326266847308  0.1145061707335122  0.5258908838568785
