pzc_combine
1.000
11.0985002518  0.0000000000000000  0.0000000000000000
0.0000000000000000  14.4173002243  0.0000000000000000
0.0000000000000000  0.0000000000000000  26.7964000702
Pt  H  C  O  
96  166  6  81  
Direct
  0.0000000000000000  0.0000000000000000  0.0018699899937576
  0.1249999521128992  0.1666699702868031  0.0018699899937576
  0.2499999943280624  0.0000000000000000  0.0018699899937576
  0.3749999464409617  0.1666699702868031  0.0018699899937576
  0.4999999886561249  0.0000000000000000  0.0018699899937576
  0.6250000308712881  0.1666699702868031  0.0018699899937576
  0.7499999829841874  0.0000000000000000  0.0018699899937576
  0.8749999350970866  0.1666699702868031  0.0018699899937576
  0.0000000000000000  0.3333300219343480  0.0018699899937576
  0.1249999521128992  0.4999999922211510  0.0018699899937576
  0.2499999943280624  0.3333300219343480  0.0018699899937576
  0.3749999464409617  0.4999999922211510  0.0018699899937576
  0.4999999886561249  0.3333300219343480  0.0018699899937576
  0.6250000308712881  0.4999999922211510  0.0018699899937576
  0.7499999829841874  0.3333300219343480  0.0018699899937576
  0.8749999350970866  0.4999999922211510  0.0018699899937576
  0.0000000000000000  0.6666699625079541  0.0018699899937576
  0.1249999521128992  0.8333300141554991  0.0018699899937576
  0.2499999943280624  0.6666699625079541  0.0018699899937576
  0.3749999464409617  0.8333300141554991  0.0018699899937576
  0.4999999886561249  0.6666699625079541  0.0018699899937576
  0.6250000308712881  0.8333300141554991  0.0018699899937576
  0.7499999829841874  0.6666699625079541  0.0018699899937576
  0.8749999350970866  0.8333300141554991  0.0018699899937576
  0.0000000000000000  0.2222199683821562  0.0864100026098289
  0.1249999521128992  0.0555599860957249  0.0864100026098289
  0.2499999943280624  0.2222199683821562  0.0864100026098289
  0.3749999464409617  0.0555599860957249  0.0864100026098289
  0.4999999886561249  0.2222199683821562  0.0864100026098289
  0.6250000308712881  0.0555599860957249  0.0864100026098289
  0.7499999829841874  0.2222199683821562  0.0864100026098289
  0.8749999350970866  0.0555599860957249  0.0864100026098289
  0.0000000000000000  0.5555599783168760  0.0864100026098289
  0.1249999521128992  0.3888900080300730  0.0864100026098289
  0.2499999943280624  0.5555599783168760  0.0864100026098289
  0.3749999464409617  0.3888900080300730  0.0864100026098289
  0.4999999886561249  0.5555599783168760  0.0864100026098289
  0.6250000308712881  0.3888900080300730  0.0864100026098289
  0.7499999829841874  0.5555599783168760  0.0864100026098289
  0.8749999350970866  0.3888900080300730  0.0864100026098289
  0.0000000000000000  0.8888900002512240  0.0864100026098289
  0.1249999521128992  0.7222199606033073  0.0864100026098289
  0.2499999943280624  0.8888900002512240  0.0864100026098289
  0.3749999464409617  0.7222199606033073  0.0864100026098289
  0.4999999886561249  0.8888900002512240  0.0864100026098289
  0.6250000308712881  0.7222199606033073  0.0864100026098289
  0.7499999829841874  0.8888900002512240  0.0864100026098289
  0.8749999350970866  0.7222199606033073  0.0864100026098289
  0.8734517140482820  0.2869946553950531  0.1724413913135576
  -0.0112229052281004  0.4534678800113165  0.1697364296429558
  0.1222346726784078  0.6174492463433606  0.1723823207296040
  0.1216487796971516  0.9528321603753648  0.1725204938233890
  -0.0062337926143471  0.1194085132317889  0.1703223220486100
  0.7389451667282612  0.7865755284811379  0.1725599283816592
  0.1212919621353051  0.2833811759925646  0.1749988241523146
  -0.0034239487802721  0.7856227171027047  0.1704007782253536
  0.2468652345667733  0.7885026236146062  0.1709333256967533
  0.8723857738192785  0.9470799818530488  0.1695168576114671
  0.3680379245689102  0.9490634970712309  0.1701056412525035
  0.8662838660061920  0.6157196941586894  0.1739993726913035
  0.2412204122053160  0.1116136523874136  0.1717764572308703
  0.4926590218181248  0.1231711799208385  0.1696189556728795
  0.6158735244783571  0.9503731122215193  0.1752703414412392
  0.2425670699393262  0.4474289308984131  0.1707344945557776
  0.7472726857896775  0.1112072454867565  0.1675773897775846
  0.7410467947023847  0.4561875819520386  0.1767898632200352
  0.6212511758858362  0.2812279619568552  0.1713183118431377
  0.3716195119544268  0.2873833402537172  0.1709463138294536
  0.3677491270532747  0.6158566865268355  0.1736359015991237
  0.4924008373125619  0.7790299851750032  0.1718888163721024
  0.4904400016945720  0.4486174062255149  0.1699975793153621
  0.6108342255432664  0.6188843183456159  0.1717971875042855
  -0.0093677301564361  0.0152850922829901  0.2541233442387985
  0.1154476960967942  0.5150765278497593  0.2586809164828335
  0.8660741206940159  0.8540413707170220  0.2574551735317672
  0.2353160942512418  0.3482413545802240  0.2591438918439827
  0.8587971261300972  0.1809086934531556  0.2586950077861060
  0.6071036486310133  0.8438809860180126  0.2534970531528305
  0.7432314239360568  0.3434591941668761  0.2595638222327857
  0.2299529385770915  0.6917881050843034  0.2596980850587838
  0.1166187543123303  0.8525556173882610  0.2568508255351118
  0.7416797328958906  0.6862207802279677  0.2581231221201264
  -0.0052462522033602  0.6899773112675806  0.2567265200615679
  -0.0134710961398367  0.3574252036670893  0.2634304907042431
  0.2411348240286751  0.0165382230230679  0.2591902137341153
  0.8674273687869340  0.5216521556944380  0.2592824398649958
  0.4831476548311411  0.0182446768540378  0.2614304704679577
  0.3615487566393677  0.8557124202495408  0.2613001565455333
  0.6123416320685117  0.1757227788618799  0.2568687921984972
  0.3540918332423009  0.1838102417076265  0.2608964299713794
  0.1069847971853158  0.1815233337784687  0.2574478689423639
  0.7379919469724402  0.0154116142580910  0.2588561390943671
  0.3532405944365471  0.5177037407405721  0.2603690865049816
  0.6216267933841846  0.5099180313807291  0.2581636898418037
  0.4870314486250828  0.3491232200822388  0.2647151644742202
  0.4828431970734858  0.6784286311256933  0.2645987905922126
  0.6510244957131173  0.7921516710979434  0.3894453316251787
  0.7664232044343502  0.7339852571193710  0.3997661743382102
  0.1177651060095280  0.9794950102099054  0.3999722547775801
  0.1384631797211309  0.0381616407677127  0.4527350015643147
  0.7359241186101101  0.8199963939277680  0.7694918554910986
  0.6165281054699484  0.8613544263973284  0.7858146802606250
  0.6936336597597011  0.5929203190755532  0.8650423525911699
  0.7257446183680231  0.5964087128606276  0.9190108542559984
  0.4207664567059518  0.0666954612958188  0.7717977251653133
  0.4004256437151708  0.0212074240907226  0.8270115820537007
  0.0244606753111503  0.4824442939446182  0.9076571616180706
  0.1546197736511007  0.4449771798735976  0.9004081468925432
  0.1614346544173315  0.7273549151612502  0.7861131432697995
  0.1832111039660714  0.8031117837155380  0.7455358547104605
  0.5779244863971360  0.1228568493645279  0.3607114933863524
  0.4446372106807542  0.1477546320849699  0.3860006626226938
  0.6182422303308200  0.2474257323009446  0.8896019486330232
  0.7428931473387850  0.2280665080316482  0.9147613800765682
  0.6871545111838981  0.2352683540558432  0.7799962533043342
  0.7263563423078319  0.2187596261042092  0.7224391407944638
  0.0308084662379987  0.1451377745517952  0.8583018786235168
  0.0490240065914993  0.1968808924722115  0.9106328253039055
  0.5078841383533607  0.5429831233732312  0.6627426069126997
  0.3759751676559402  0.5694018856154175  0.6549329877641662
  0.5148764224133096  0.3965214559980189  0.5206830974626460
  0.5250184511871292  0.3644447415781765  0.4622021760181744
  0.5069396866470772  0.9241519901307949  0.3730772249708908
  0.5543033174777154  0.9303764776564653  0.4259157707490825
  0.5387897975341468  0.8117150441713994  0.5734417663657949
  0.5861924389779469  0.8760527416299425  0.6148628532316516
  0.2706986716527526  1.2238063496702041  0.3545107329870186
  0.2230048349909792  1.1479161809716383  0.3917544594273423
  0.6246000919696982  0.5990234866680330  0.4592360248601167
  0.5208595999141823  0.5306922919940432  0.4823209754385316
  0.0418262105390963  0.3146128414427348  0.7017602566813612
  0.1672517205195312  0.3719061055039057  0.6934212777284198
  0.9711708997305191  0.5017566837171992  0.7800808340649612
  1.0555343265861563  0.4437618425616598  0.7432450608150422
  -0.0072877340239626  0.1055076752259181  0.3924805920328052
  -0.0093799725042234  0.1410036766435376  0.3366449357812066
  0.6919435283748812  0.9193924179270931  0.9272957602963023
  0.6994654565639138  0.9412050514442862  0.8715602980667726
  0.4574020644525080  0.3925210825714607  0.9060395127403691
  0.4510405135674189  0.3681458031132664  0.8489588688444376
  0.7275108422681236  0.1139250025002339  0.8550442148190017
  0.7144810103341606  0.0639165895808167  0.8009518445079630
  0.2860769295099184  0.9089862797621175  0.5126215502871269
  0.2724088624325313  0.8064557246302692  0.5042988997327333
  0.1413220537743935  0.5844099241201094  0.3899179628430595
  0.0513155796620027  0.4944330333140513  0.3907302135313228
  0.0953732821178545  0.6880317664108034  0.4383975594790528
  0.2197747376276723  0.7354463713690759  0.4262277849367381
  -0.0919353143083018  0.2141464657714654  0.6770692074147924
  0.8157458482943817  0.2726790671164563  0.6461725757914751
  0.1196962555534967  0.3037802208917132  0.8456239222633339
  0.1137701436187483  0.4013800986433274  0.8188718630306755
  0.7146257909318579  0.5800043600816396  0.6368618336266177
  0.6131009239195555  0.6175212947632340  0.6014709738277058
  0.4543562289131955  -0.0357046775742643  0.5467856867495501
  0.5097583069372310  1.0154330387477801  0.4998450475366421
  0.3026505691393059  0.7069398504597526  0.6182924625955676
  0.2275372396996101  0.6265470350596506  0.5893013381212046
  0.4422506372610073  0.1398873827085002  0.6790304617497895
  0.4663396317047961  0.0533871416371487  0.6450987225042942
  -0.0805299495087227  0.1518557723525730  0.5187370435276627
  0.0269306560092680  0.2358403662822446  0.5206059255442322
  0.8153738430408493  0.0754512460707820  0.3513813913709687
  0.8083257844720969  0.9666229219886163  0.3431922294154403
  0.8415959066978556  0.6222970663382720  0.7728435515310409
  0.7627125282199383  0.5495580869742686  0.7884894566265633
  0.8623383519721766  0.5705773074167501  0.6956921103007274
  -0.0908409337501692  0.5383828418039944  0.6409994300802286
  0.2196001152682517  0.4499459509947857  0.4561586068866589
  0.3403352967341147  0.4264399901541558  0.4881121089375636
  0.6953603065827161  0.8802671768816680  0.6905862406786302
  0.8006844003412773  0.8497316866337791  0.6572173618867960
  0.5477407160047653  0.5706285164564809  0.8004563276898375
  0.5815931824079683  0.4864150916882561  0.8397118270122937
  0.6996858231670143  0.0346705361491679  0.4921353977904530
  0.6133453793269030  0.0814694525761690  0.4512403798653150
  1.0364737650327436  0.8466767474693879  0.5342567809368115
  0.9458652347011878  0.8051493043499831  0.5739905273770306
  0.7123381483834079  0.3008265218608623  0.4388437106399805
  0.6065128437518643  0.2253962418513607  0.4230758908734036
  0.3298543829835263  0.7047326741920097  0.9055484964932041
  0.1989269238735145  0.7455114641355718  0.8967892650671505
  0.8352771713814667  0.7165643032797144  0.8937902393775256
  0.7981129515011179  0.8168460403183282  0.8980093809041416
  0.2088062474679089  0.6200089712242922  0.8448465056011918
  0.1521460118024629  0.5588957596664896  0.8010816524855603
  -0.1162415943803547  -0.0302818019537494  0.5281447317036706
  0.8064592637053256  0.0333457868616551  0.5657409097671698
  0.3293128645203424  0.3275277252908333  0.6662536601569238
  0.3542981966921399  0.4333416114599458  0.6773762814575162
  0.3510476322031090  0.6098947632150683  0.7795849166034668
  0.4264475286588739  0.6024833984839724  0.7309695931985615
  0.4180842153467941  0.2189620043064112  0.7548479643276587
  0.5440542932294570  0.1688982002882741  0.7433833741328867
  0.5060753926269510  0.8395298648147331  0.8798337093690075
  0.3709772587726203  0.8615848134495728  0.8843506473563085
  0.2554409399900862  0.1534418478482791  0.8711927752512377
  0.3616604118154622  0.1491054786510402  0.9040475163953317
  0.8819162956015205  0.4087168931093063  0.6056457276419096
  0.9930964175463640  0.4154344452857369  0.6448200543481076
  0.0959635520328312  0.1247751993794207  0.7033568069675162
  0.0914782725923117  0.1297909721506721  0.6479232747240594
  0.0454297351768971  0.5102218219886695  0.5736502148956485
  0.1557574375348270  0.5081359747612313  0.5314103893394259
  0.3958134126173971  0.3608190637753452  0.7628005784340957
  0.2888511722815943  0.3191152319035085  0.7972618690955583
  0.8448389552975222  0.2738539331202488  0.5572761730373935
  0.7046768376953977  0.2937809264012636  0.5711871716873409
  0.2949638814459696  0.2761930979899072  0.5851147793593521
  0.3866336353782629  0.2118675607969666  0.6158038890063802
  0.0362395419718776  0.6234138987929960  0.5113177880500922
  -0.0197821450573371  0.7205979885533264  0.5051202909697032
  0.5508861131672638  0.6681888839120524  0.5270914480974377
  0.4419944844353551  0.6796226812552026  0.5652910003551437
  0.4025608742023851  0.8714945896751656  0.7662024264047629
  0.4266603199411570  0.7684630079649968  0.7572583714208051
  0.0132615494130506  0.8276225517859975  0.8886982392453234
  0.1069731732904586  0.8327553875908087  0.8427123889231983
  0.4006924184624633  0.8480904694965983  0.6203857870515784
  0.3811916769307506  0.8240904806833808  0.6785220276144465
  -0.1309845114040726  0.7458695555063334  0.8232592669241837
  0.9364063318658273  0.7586551056601208  0.7712744338103825
  0.1913824892111447  0.3054718844293076  0.5085453633174648
  0.2017811748697121  0.1873746121792481  0.5163953790452838
  0.1484563997313762  0.8732830610948380  0.3380912579550236
  0.1190114164826711  0.8070316386204632  0.3842565823216995
  0.5863732506330779  0.4475466972883463  0.5903872636680604
  0.4812170677505557  0.3684008195894998  0.5962549441097648
  0.4228423177572018  0.7009488151024935  0.4509177902347170
  0.4111007445316783  0.8072672576300662  0.4356774081636132
  0.8223200242050562  0.8072648685489301  0.3517015958043076
  0.9689811726278812  0.8419462600037075  0.3457727905960036
  0.7477204928885867  0.0186555988302629  0.6453576455492489
  0.7878663530761141  0.1259978761098594  0.6364402531504939
  0.2704286546205401  0.0210621588005908  0.8899489796847927
  0.1912160764924802  0.9261894962063422  0.9057148911801143
  -0.0188238067721012  -0.0084469247990508  0.8590206212288498
  0.8732280968708532  0.0415380776485895  0.8384824298539555
  -0.0841373350195269  0.7041299111320193  0.6466932004187926
  -0.0179027298186325  0.7973064288711595  0.6444441011762784
  0.0847458926756755  0.9255956346048775  0.6884025733596356
  0.1872744943500727  0.8660874622874312  0.6550144163439113
  0.8385633611794157  0.5637697663741783  0.4132471738961222
  0.8789960557704909  0.6340698879247935  0.4570860946325833
  -0.0574291046753481  0.4271193945466294  0.3395048519340941
  0.8972031830593538  0.4025149425007385  0.3974582060686672
  0.0933766597997709  0.0350956104283087  0.7842912549985354
  0.2241302518506106  0.0276117465272059  0.7687209654034044
  0.8995891425042531  0.2459387542283186  0.4010424769650706
  0.8965941747206907  0.2683571387435577  0.4607367730499723
  0.3000765097392201  0.0465952723706020  0.5100157624231946
  0.1988315724047583  0.0610555100958743  0.5472499381925577
  0.2693244224880939  0.0680776281987742  0.6331206927555540
  0.1720609239874811  0.9952435019294100  0.6246016043256918
  0.8735378941517464  0.3991947352181491  0.9070074234198653
  0.8541694877974612  0.4962236810080270  0.8808539631877436
  0.5128223324297280  0.3298876383723861  0.3593184516941023
  0.6939523996902992  0.4221123628987534  0.3521237982184514
  0.6907469753092680  0.5926060470322781  0.3489461518377088
  0.3061200244374445  0.5811753969149811  0.3536597938071189
  0.4871761167391137  0.6674351207226251  0.3606640386649470
  0.2224136428072482  0.4637437654749692  0.3831135283025119
  0.4952005697714553  0.3919836731689056  0.3383687660822540
  0.6065450465893550  0.4515191505915986  0.3370641242494551
  0.3915782449160334  0.4527080500133579  0.3514018240036569
  0.6111209697454376  0.5542930914853724  0.3351429346320015
  0.3822066034113058  0.5445907784986294  0.3361970128598979
  0.4940305890348333  0.6082095882640016  0.3356626316533745
  0.7183884690642683  0.7609795768217544  0.3722368995189267
  0.1048214416367942  0.0395327040730799  0.4190353827522994
  0.6842009798908134  0.8776992058660129  0.7632265557956105
  0.7673356331202312  0.6011620419467829  0.8866027891828933
  0.3925437934727641  0.0121388854762853  0.7916564459750458
  0.1155082117957411  0.4930558807063435  0.9179700994856959
  0.1231266025405885  0.7856321706063344  0.7736126859015535
  0.5323958940886349  0.1482088111613661  0.3887278976881708
  0.7007184405333239  0.2298389323900541  0.8822604778352807
  0.6805016453979984  0.1904771415227523  0.7532772748884153
  0.0847246322175373  0.1873051045471389  0.8787038169274601
  0.4263221134975079  0.5325401705209186  0.6771299715508603
  0.4941072660435005  0.4165557667154420  0.4854869822632448
  0.5367969056119780  0.8850898214557755  0.4007685797183967
  0.5284480034272012  0.8752345676295067  0.5882157653792022
  0.2874674272483400  1.1935795417921600  0.3886088186442828
  0.5456984231466537  0.5988042012296489  0.4745700151283451
  0.0760166406414389  0.3730094605809672  0.6896954302138861
  1.0563057994433662  0.4772002311919700  0.7756400905028311
  -0.0651094380506774  0.1407076878222182  0.3678971273183570
  0.6718283366791571  0.8920228461445121  0.8932106165453798
  0.5061383452227205  0.3866017402207924  0.8761694582515900
  0.7359794444817205  0.0520153496863461  0.8368770854798118
  0.2262587575733698  0.8609706048417036  0.5176874949492595
  0.1366038745869392  0.5223636552984146  0.4040722852746684
  0.1445062741553651  0.7094310573460090  0.4093894313325992
  -0.1751025678703585  0.2390413578674941  0.6793452598412459
  0.1694437232269289  0.3537753055667981  0.8331176268758170
  0.6253173964810631  0.5690242627029928  0.6288408080285178
  0.4316127003396785  1.0064165344593490  0.5174977485621822
  0.3102555578841871  0.6457859628814139  0.6002851307474132
  0.4297489272054079  0.1131157885615288  0.6440412775666994
  0.9351737351735147  0.2212757966656613  0.5197278701846182
  0.7551651505112776  0.0230966327481169  0.3426323433613175
  0.8350189741895051  0.5524065008840228  0.7670157394148279
  -0.1418067216644652  0.5895551308194172  0.6616024316272152
  0.2437782541439506  0.4285561458993610  0.4875900367837164
  0.7279406634594351  0.8878897149567767  0.6569889171597444
  0.6153961212725374  0.5421418243566818  0.8208723831400769
  0.6370272756135091  0.0255324544382839  0.4662150333952211
  0.9564902447047579  0.8202409872736189  0.5370913652242908
  0.6223854162889896  0.2909681213844375  0.4391486749814065
  0.2435665283209396  0.6839006547828709  0.9021639526006513
  0.8691312519847502  0.7833585212690785  0.8877007113523985
  0.2064909765288617  0.6130071536072980  0.8074472975443417
  0.8441821024404150  0.0304866476012738  0.5294756304216540
  0.3095033370335685  0.3774642943987264  0.6926953035472224
  0.4333897877616301  0.6215430528107131  0.7657137294766049
  0.4536682238470371  0.1698209444215742  0.7347707343829429
  0.4295739917045789  0.8216668402960421  0.8657712995448215
  0.3345018600867172  0.1257732061404750  0.8725174700799090
  0.9514436742376431  0.4484049614021188  0.6155069000795411
  0.0520976792162729  0.1598999366826274  0.6775094294919779
  0.1082903143246834  0.5515830932268810  0.5558049843144038
  0.3765257146092557  0.3129045827592893  0.7884276321988170
  0.7890013243798230  0.3026974606968683  0.5827385369673447
  0.3642671547035662  0.2751292249372986  0.6052351123177925
  -0.0061188174130992  0.6623058823181033  0.4860688887454271
  0.5278852283442356  0.6952549391324532  0.5616701696187083
  0.3966320284568234  0.8246948391114112  0.7413171340239562
  0.0980368735517696  0.8442893988143333  0.8786517170373128
  0.3385615787043469  0.8252020680298792  0.6453022361361892
  0.8554954596104196  0.7400859007302847  0.7861239562110618
  0.1749835299580256  0.2479705894085714  0.5313056186578177
  0.0988101120529453  0.8686662084272485  0.3683624951314711
  0.5632788801879873  0.3824082521849326  0.5806395918906682
  0.3644123324900639  0.7523903331302566  0.4435574603178885
  0.8827315122789751  0.8515167243453905  0.3342303060201010
  0.7537430725510199  0.0694089390961952  0.6208002890768842
  0.2637919749044628  -0.0362702666632850  0.9128025117598358
  0.9611874098097049  0.0379468909565947  0.8343077938055705
  -0.0901551966390883  0.7677395924268766  0.6319177705378101
  0.1041390481035985  0.8868902810908084  0.6581594519971790
  0.8098737080032257  0.6144148048862658  0.4334136448132720
  -0.0788445017116686  0.4591555521499456  0.3741942454632549
  0.1452193829917340  0.0370881163866421  0.7546355476640364
  0.8836862252185258  0.2924788404484193  0.4259730351165341
  0.2153002697109873  0.0699598886066044  0.5101235191066460
  0.1912743523933070  0.0594353621113973  0.6149718071132309
  0.9131197947449147  0.4449749478676395  0.8848253653059837
  0.2970608030995260  0.4119277344304835  0.3734666351219806
