pzc_combine
1.000
11.0985002518  0.0000000000000000  0.0000000000000000
0.0000000000000000  14.4173002243  0.0000000000000000
0.0000000000000000  0.0000000000000000  26.7964000702
Pt  H  C  O  
96  166  6  81  
Direct
  0.0000000000000000  0.0000000000000000  0.0018699899937576
  0.1249999521128992  0.1666699702868031  0.0018699899937576
  0.2499999943280624  0.0000000000000000  0.0018699899937576
  0.3749999464409617  0.1666699702868031  0.0018699899937576
  0.4999999886561249  0.0000000000000000  0.0018699899937576
  0.6250000308712881  0.1666699702868031  0.0018699899937576
  0.7499999829841874  0.0000000000000000  0.0018699899937576
  0.8749999350970866  0.1666699702868031  0.0018699899937576
  0.0000000000000000  0.3333300219343480  0.0018699899937576
  0.1249999521128992  0.4999999922211510  0.0018699899937576
  0.2499999943280624  0.3333300219343480  0.0018699899937576
  0.3749999464409617  0.4999999922211510  0.0018699899937576
  0.4999999886561249  0.3333300219343480  0.0018699899937576
  0.6250000308712881  0.4999999922211510  0.0018699899937576
  0.7499999829841874  0.3333300219343480  0.0018699899937576
  0.8749999350970866  0.4999999922211510  0.0018699899937576
  0.0000000000000000  0.6666699625079541  0.0018699899937576
  0.1249999521128992  0.8333300141554991  0.0018699899937576
  0.2499999943280624  0.6666699625079541  0.0018699899937576
  0.3749999464409617  0.8333300141554991  0.0018699899937576
  0.4999999886561249  0.6666699625079541  0.0018699899937576
  0.6250000308712881  0.8333300141554991  0.0018699899937576
  0.7499999829841874  0.6666699625079541  0.0018699899937576
  0.8749999350970866  0.8333300141554991  0.0018699899937576
  0.0000000000000000  0.2222199683821562  0.0864100026098289
  0.1249999521128992  0.0555599860957249  0.0864100026098289
  0.2499999943280624  0.2222199683821562  0.0864100026098289
  0.3749999464409617  0.0555599860957249  0.0864100026098289
  0.4999999886561249  0.2222199683821562  0.0864100026098289
  0.6250000308712881  0.0555599860957249  0.0864100026098289
  0.7499999829841874  0.2222199683821562  0.0864100026098289
  0.8749999350970866  0.0555599860957249  0.0864100026098289
  0.0000000000000000  0.5555599783168760  0.0864100026098289
  0.1249999521128992  0.3888900080300730  0.0864100026098289
  0.2499999943280624  0.5555599783168760  0.0864100026098289
  0.3749999464409617  0.3888900080300730  0.0864100026098289
  0.4999999886561249  0.5555599783168760  0.0864100026098289
  0.6250000308712881  0.3888900080300730  0.0864100026098289
  0.7499999829841874  0.5555599783168760  0.0864100026098289
  0.8749999350970866  0.3888900080300730  0.0864100026098289
  0.0000000000000000  0.8888900002512240  0.0864100026098289
  0.1249999521128992  0.7222199606033073  0.0864100026098289
  0.2499999943280624  0.8888900002512240  0.0864100026098289
  0.3749999464409617  0.7222199606033073  0.0864100026098289
  0.4999999886561249  0.8888900002512240  0.0864100026098289
  0.6250000308712881  0.7222199606033073  0.0864100026098289
  0.7499999829841874  0.8888900002512240  0.0864100026098289
  0.8749999350970866  0.7222199606033073  0.0864100026098289
  0.8851095423732411  0.2800484053106437  0.1727530404484459
  0.0021442018705311  0.4559283976011639  0.1706834242890098
  0.1270192450616348  0.6183288526984136  0.1692308964233998
  0.1326531552099775  0.9469416100657541  0.1740184537954317
  0.0088673604601702  0.1105913903015371  0.1729379024480810
  0.7582651494318002  0.7764732267856711  0.1704546107101732
  0.1331109732110336  0.2800058111154444  0.1713235002527612
  0.0141646216005179  0.7854842726249629  0.1721762407977649
  0.2643653103512019  0.7855852486313825  0.1725832790481055
  0.8781544318944644  0.9470131639825035  0.1731746351503613
  0.3864448475013008  0.9480225434900116  0.1715289944193498
  0.8783867063136663  0.6165198974506035  0.1723500963002875
  0.2565180023885000  0.1162550342660551  0.1699237714122550
  0.5117110895482405  0.1162411042724449  0.1719674330405535
  0.6304798014727382  0.9479908757579885  0.1727275154488860
  0.2475020577896996  0.4507724806719519  0.1689369922168882
  0.7584627974968750  0.1181245950562625  0.1723113064517527
  0.7496745950832938  0.4474347433319961  0.1709996715228845
  0.6233908675974392  0.2832995512582738  0.1725025830182531
  0.3801385821220079  0.2826644246771843  0.1719311366724797
  0.3786424413080896  0.6173185346448677  0.1718308549968456
  0.5113390112397925  0.7823684861808209  0.1742578587223320
  0.5027136223198369  0.4450220517490483  0.1733388813546451
  0.6312554002297508  0.6130436918351079  0.1708467627743487
  0.0128380441742020  0.0130204897920903  0.2614129435837952
  0.1345147872982093  0.5183122219862644  0.2577179459296099
  0.8830698868714693  0.8548375812988513  0.2582545857380293
  0.2514934368765105  0.3496496710045278  0.2554187228273054
  0.8952705223472435  0.1853700564059495  0.2559683064826255
  0.6396343225336827  0.8427351164763522  0.2569677831970288
  0.7652634619008568  0.3455410552665993  0.2541467204347935
  0.2491869688115260  0.6776538508806949  0.2581065263685018
  0.1416242465233153  0.8556223981316818  0.2587293668603692
  0.7655920131390667  0.6788941119227629  0.2566345262529390
  0.0096346445081765  0.6877504714709113  0.2554717933142467
  0.0097092327931896  0.3504783050493308  0.2553314713236006
  0.2667166472442896  0.0196821851723475  0.2600802885254125
  0.8859055198746668  0.5122986940405903  0.2612435429781875
  0.5066216685527470  0.0180384569755762  0.2595665465315650
  0.3872023401092445  0.8468808169521778  0.2567168811026285
  0.6323885763089206  0.1912160682104302  0.2580300388741134
  0.3824336918865789  0.1832649394750525  0.2560538991590294
  0.1438656578794096  0.1902926416886213  0.2635895095832282
  0.7555707060546286  0.0232047752488447  0.2594462593029986
  0.3836256132002586  0.5154043125408234  0.2537894123421051
  0.6433250054701773  0.5141857529334990  0.2584982244388583
  0.5065847951652880  0.3503928196962601  0.2623355841562315
  0.5079670500242282  0.6776572431454906  0.2627551519179662
  0.6629094330026043  0.7659122095819531  0.3790157501079658
  0.7387399914479676  0.6824837864315015  0.3983476438117058
  0.1190241940379067  0.9798788629086702  0.4188025517681502
  0.1582712855113114  0.0537638490661059  0.4565530802253278
  0.7421437981554435  0.8437346659326167  0.7431750722831839
  0.5950527128590104  0.8584867781929637  0.7435745966249595
  0.6918615595341044  0.6069440953481192  0.8573740300791278
  0.6707211804849670  0.6429055389980293  0.9115673866753732
  0.3402392409629913  0.1041688249835221  0.7756869542754540
  0.3692882777143948  0.0574221975765366  0.8235915737219877
  0.0482589623506234  0.5130727349862862  0.9043329510984993
  0.1582866316658491  0.4475300560867159  0.8996462011816825
  0.1347331662904166  0.7298682474104411  0.7895209833476000
  0.1156050672965395  0.8388872114638385  0.7692060384306002
  0.6074255223363746  0.1268484843311775  0.3535993645742459
  0.4882384226842875  0.1269430553312113  0.3846870460657017
  0.6621446103231956  0.3448510673114873  0.8800774960113508
  0.7651647541948475  0.2894178711328454  0.9080609483420953
  0.7435737814450710  0.2588191283698660  0.7736564019976310
  0.7451121377466111  0.2138684799393298  0.7234273472300533
  0.0448046502606829  0.1391995345437457  0.8831035363782498
  0.0653681117574726  0.2256279537563656  0.9195786443121307
  0.5024078369323518  0.5761033936298758  0.6660977694444006
  0.3621194947081417  0.5869517596877862  0.6487383262400386
  0.5060791479721828  0.4273136756295244  0.5251683584822283
  0.5565481906078448  0.3877648310865660  0.4681042919138048
  0.5245051788196239  0.8603133944241783  0.3643981837791363
  0.5908184109232710  0.8840384287009482  0.4122303259901117
  0.4633691520497047  0.8191411691347642  0.5880986556595466
  0.5086633398674208  0.9162922601094273  0.6102023038193114
  0.3134081082023551  1.1641246544766941  0.3484397003567469
  0.2698683259311759  1.1003853425872783  0.3888150092477044
  0.6189180031766857  0.6145452549199573  0.4742434257552549
  0.5045639686399777  0.5381092060650818  0.4789060687062738
  0.0735240037830928  0.3306847506140131  0.6813223378913276
  0.1762455311367640  0.3995596633474206  0.6905685528250842
  0.9406598144832057  0.5130901374677562  0.7760543345195992
  1.0545758450653513  0.4553943966384161  0.7550957759658863
  0.0234156553321564  0.1210589919850782  0.3927558192342457
  0.0280063253005368  0.1830448366714325  0.3467773252024985
  0.6406093659768942  0.9915754488419903  0.9219893706832391
  0.6730059337961982  1.0181359154510286  0.8688404926634696
  0.4940332725415526  0.3831579763796041  0.9082802832335211
  0.4918335373209276  0.3520764643400116  0.8540404799729202
  0.7311794537269912  0.1665417590356505  0.8625505832368882
  0.7515391791920019  0.1304893332753874  0.8063245842872929
  0.2774057977789088  0.8808999695722595  0.5412919495193871
  0.2838121622413927  0.8192271640700650  0.4959913729449256
  0.1108923059582211  0.5578755598807343  0.3817691425825785
  0.0254380240928689  0.4794828254424894  0.3840191286792949
  0.1170883987761536  0.6974305139773977  0.4277482265816331
  0.2592047947949933  0.7061791107630434  0.4124421790444447
  -0.1460025475187240  0.2114571073620005  0.6639329765413229
  0.7590244277134430  0.2747479501761103  0.6406507531431952
  0.1036613316031965  0.3002796177541760  0.8589975870788005
  0.0892666033268162  0.4037774652766270  0.8281078409848648
  0.6952171752619106  0.6019650439735068  0.6407029858571544
  0.5870256635749820  0.6467469440765372  0.6090755304721117
  0.4466203265072758  -0.0252254361247900  0.5380307591030974
  0.5075028303023641  1.0122161705145840  0.4908147956794495
  0.2585728323459351  0.7116952210168869  0.6318084345675929
  0.1966340598988641  0.6360839312996451  0.5936153581722993
  0.4660549423568379  0.1301839324838731  0.6739886862334491
  0.5189112516500560  0.0968995156974911  0.6235836898062584
  -0.1323132795948566  0.1648690126389740  0.5213372969840023
  -0.0319539361944406  0.2437816518571283  0.5332331308223132
  0.8645338315547488  0.0773384897416976  0.3466032921835936
  0.8395181389565556  0.9693874666523129  0.3447781187956806
  0.8236959581829397  0.6490284694029336  0.7687724825398998
  0.7496443779014773  0.5432645726832178  0.7693376595510030
  0.8642491676516699  0.6299353490809999  0.6972411329153794
  -0.1197746334946837  0.5893806639385958  0.6419702263786811
  0.2025953693009403  0.4652918031694595  0.4520493285689919
  0.3381782910615584  0.4427585191810716  0.4766605800532320
  0.6747977516498559  0.8941094597637039  0.6722251791960783
  0.7566947580091238  0.8672485291959074  0.6271392206592985
  0.5456392034696623  0.5694751616784502  0.7937167265409192
  0.5675626092073465  0.4964029934354428  0.8364784864414327
  0.7236627627500758  0.0099393901403588  0.4699478773122381
  0.6476052006517106  0.0430175479494194  0.4228512313413684
  1.0756026761060724  0.8687050801848787  0.5201360986620011
  0.9589415593763584  0.8359524682565987  0.5519016591988664
  0.7406905750411418  0.3040166028874391  0.4296634654557189
  0.6342498089107445  0.2373403444032212  0.4255205436412525
  0.3092027061893732  0.7457182579772492  0.9035607111130614
  0.1777065703701838  0.7579432311246442  0.8970144095486553
  0.7804984032590442  0.7659152825428618  0.8940507812369436
  0.7700707669050936  0.8767102704080436  0.8855380478846124
  0.2099566034178427  0.6381397041724363  0.8424928254637564
  0.1290948029277766  0.5708929462623870  0.8042260395815606
  -0.1035533043046608  0.0020247644042813  0.5222031711476668
  0.7780521941871835  0.0386424022273594  0.5497665548919403
  0.3578928278310209  0.3687476520076506  0.6889451840260650
  0.3647116942078295  0.4710765146412669  0.6981249582030283
  0.3433620361617731  0.6320971520201848  0.7905532147117957
  0.4191484023929749  0.6202102566005313  0.7346017014423938
  0.4012612661767277  0.2457354316190648  0.7470644848097533
  0.5187371246008011  0.2014709127582886  0.7565742727078446
  0.4975699502465996  0.8549267670465294  0.8783659611156240
  0.3741910218929315  0.8916722716387888  0.8967001098226497
  0.2584426211762083  0.1788804287402717  0.9027195557548434
  0.3911239338032160  0.1592757190787773  0.9159190687257424
  0.8976808115118232  0.4352511637527945  0.5984464508847852
  0.9873675387197237  0.4451610671658613  0.6387168441567552
  0.0241700737229333  0.1639440561497193  0.7025875980944586
  0.0760115488003146  0.1535956288173584  0.6504301492901958
  0.0797837851881284  0.5297951185635975  0.5647442593577851
  0.1904993235331144  0.5351127962499358  0.5294187525128302
  0.3711372439741985  0.3654338299427210  0.7700454677286056
  0.3014590143796567  0.3305862027043562  0.8246184948915444
  0.7945035751717798  0.3107568287333442  0.5607222549236949
  0.7039191231295369  0.3750044085360304  0.5854961517330003
  0.3206144080073245  0.3040217408951692  0.6020480508402706
  0.3998449009252650  0.2395610443957230  0.6336814264496561
  0.0245139857032372  0.6388921619857039  0.5040351214236515
  -0.0162097646725577  0.7329790078303711  0.4820734292426761
  0.5065142998116591  0.6848599301801251  0.5389507296750928
  0.4053384061211685  0.6876342284660542  0.5850727481463142
  0.4210106521502471  0.8516845190130720  0.7910270838571561
  0.4367593732598089  0.7487169883447511  0.7695687099900089
  -0.0202541505158359  0.8313710327955635  0.9018892186818892
  0.0566069692432640  0.8269605749212919  0.8499548389348259
  0.3273827738671908  0.8618745621774907  0.6488369776892285
  0.3021598378624276  0.8187313708085809  0.6978160392632337
  -0.1896299079020759  0.7827618530811260  0.8159049530468074
  0.9185670579992623  0.7755220374307539  0.7804532716376894
  0.1881607929288744  0.3353036521811567  0.5262290461763043
  0.1946762854872741  0.2294598936855130  0.5378250872633891
  0.1657008116030577  0.8854139576066010  0.3476888158369126
  0.1246552601172956  0.7996728611344271  0.3817033229316037
  0.5769199405353479  0.4783785107336118  0.6088534673037604
  0.5178111607978690  0.3713153398912397  0.6054704453880363
  0.4347543031787058  0.6915891032423938  0.4489857882507052
  0.4375283858656893  0.7939339423137909  0.4280257834728766
  0.8273655538919091  0.8107368316572262  0.3605216647606163
  0.9615957448457171  0.8604829670460954  0.3535465503791939
  0.6745288153041983  -0.0068738273434139  0.6140374172498758
  0.7150152625903642  0.1011913683770731  0.6236603685464854
  0.2372296686638347  0.0335360134961381  0.8976232246005751
  0.1813870394311613  0.9322187663919964  0.9031224865840486
  -0.0356914117414878  -0.0121092522444490  0.8890688728331927
  0.8960108415357453  0.0601122467741410  0.8546541729823139
  -0.1163154485121205  0.7500194863789079  0.6267853131801163
  -0.0408427807015171  0.8451752384307183  0.6364935055984444
  0.0933276706221645  0.9640140179140100  0.7143697044435539
  0.1377141202616196  0.8988189054881927  0.6686897016561174
  0.8131848893760458  0.5320736578246883  0.4249719224771600
  0.8639832512635958  0.6151928244131877  0.4570975605272257
  -0.1208134181897717  0.4297247154122302  0.3387472558821313
  0.8803791002946832  0.3841645369751545  0.3923897469344479
  0.0559913670407148  -0.0113716579421485  0.7997021667298930
  0.1926697039947532  0.0040743104871323  0.7848132666106682
  0.9166679641287567  0.2366657293262869  0.4025982483108777
  0.8909414512646702  0.2641965376485692  0.4549920319281530
  0.3076066576784830  0.0875625924174229  0.5214042745442455
  0.1956249894347549  0.0819625855268179  0.5522251341871965
  0.2644407206842209  0.0891201305175279  0.6370382211222372
  0.1441776267059579  1.0321190546493237  0.6371268023978481
  0.8336425987105278  0.4454671386516006  0.9017440450731280
  0.8201789065260127  0.5580740340649077  0.9036665598573916
  0.5236358067259993  0.3230914084905355  0.3592504530340127
  0.6904301716673138  0.4137951321596798  0.3572804459150823
  0.6873391128195712  0.5945671120000691  0.3519855598621686
  0.3015436496167328  0.5772278968133966  0.3449971627450404
  0.4893416277320158  0.6657256926177388  0.3583681746145957
  0.2299389209443961  0.4308988290005336  0.3675580210176526
  0.5087064985185118  0.3935716639261079  0.3365235078247843
  0.6132238847853516  0.4547909366240831  0.3437387250552142
  0.3937903921740397  0.4394159188710098  0.3426160591664684
  0.6089432874413730  0.5491623503584503  0.3403820702857540
  0.3848807207268581  0.5432680106639236  0.3363956460227876
  0.4953102134054951  0.5988756598234197  0.3374000998385795
  0.7429205809282874  0.7331068721025523  0.3745741434672156
  0.1211480054777611  0.0470461043501598  0.4245325404755048
  0.6730491229559157  0.8829188504755607  0.7301788577772179
  0.7271343799168863  0.6501143868255043  0.8829917224968272
  0.3226359331225185  0.0494614372667420  0.7952117974121946
  0.1311307141668952  0.5053963008912633  0.9205703374660761
  0.0802291583365588  0.7835491982652727  0.7841215823638498
  0.5796493378964992  0.1308926556387658  0.3889815422405060
  0.7463803992486745  0.3177025041262461  0.8733367027731995
  0.7087656465497869  0.2062677161766871  0.7580428575698748
  0.0851860257557471  0.1994517816347697  0.8880949023844896
  0.4166619441352004  0.5790669728115027  0.6797024067555676
  0.4943142650837201  0.4258453953918472  0.4867003698942259
  0.5467014065811223  0.8312688226537842  0.3970078236229512
  0.4306472514360519  0.8874358545184007  0.5946089797084104
  0.3324194712435714  1.1488528647050629  0.3830739054502923
  0.5302912814049335  0.6066569663825295  0.4754616815028358
  0.0866589518835226  0.3950338170388294  0.6844581724429787
  1.0185999791518245  0.4809205290816953  0.7842693030908739
  -0.0312511784503269  0.1547427425031873  0.3713468746223914
  0.6597854778723266  0.9620595360927530  0.8885542410855000
  0.5409035076812629  0.3923416978628285  0.8760191009166701
  0.7572153327146173  0.1147527835281884  0.8437740790541662
  0.2316797707404634  0.8392047864625393  0.5217864649009042
  0.1132678624660226  0.4887745788093376  0.3881002316936366
  0.1727930098203108  0.6979695147250483  0.3989788650935082
  -0.2326474309969254  0.2215528130236386  0.6638967479808648
  0.1381378235542547  0.3647463529223497  0.8525462447698665
  0.6133555155973403  0.5894017527413029  0.6279124181464879
  0.4341682143241378  1.0135957431870375  0.5087896606664689
  0.2751474488280283  0.6557030376232588  0.6116854236822739
  0.4426860341155702  0.1188041291332104  0.6397262935279072
  0.8927040803187017  0.2316378150308059  0.5185489005387988
  0.7957887968122160  0.0332989437294810  0.3422530814166766
  0.8233658460311285  0.5799352749003294  0.7576673983449922
  -0.1547879315154659  0.6432288270705177  0.6599569485815640
  0.2536918458008193  0.4632528040335150  0.4832147676097656
  0.6813419187221791  0.8975082987861034  0.6347575798331127
  0.6124426184247374  0.5394526221415089  0.8135302519887065
  0.6549385764190175  -0.0083923298965549  0.4490046483773892
  0.9856706458627860  0.8667337130802321  0.5206438479068383
  0.6545020905704710  0.2991728821066026  0.4434469866127547
  0.2386940616116444  0.7049954732210272  0.8970764975453879
  0.8264277753935653  0.8216090395922325  0.8842176420835605
  0.1908942626330427  0.6177689504369351  0.8074452948611508
  0.8380567832389333  0.0576158212201155  0.5225308631949939
  0.3484663722175219  0.4113494957123947  0.7168432032540791
  0.4220215824151881  0.6370785766546632  0.7705744506577628
  0.4515819260703402  0.1978104904268557  0.7321145706067068
  0.4117148324215168  0.8422124687002243  0.8755860547101050
  0.3382296915199138  0.1561125707923086  0.8875363727252521
  0.9409575682990389  0.4844486484250288  0.6158510875627791
  0.0279992877190413  0.1967378901924557  0.6708836176540121
  0.1247388637194895  0.5768904268832221  0.5444939653265559
  0.3733123139253015  0.3220277033334387  0.7995986769516865
  0.7860434898476594  0.3437398190437293  0.5935824487964992
  0.3891468220401703  0.3055351099629248  0.6253229374543718
  0.0035619027078536  0.6705120463543208  0.4733508783071893
  0.4889322322914685  0.7089468496794283  0.5722891486029952
  0.4354643212731525  0.8195732411040709  0.7594078941570347
  0.0599009566262954  0.8390776451481821  0.8873179324838515
  0.2633572777029902  0.8281770431315079  0.6655670686315024
  0.8286354914582676  0.7668800196561639  0.7801982046927978
  0.1548018803821135  0.2874688181574042  0.5504700229902899
  0.1062249757131640  0.8709739173243638  0.3755489947991693
  0.5649092104298653  0.4203019637537035  0.5886498203742585
  0.3789674151800698  0.7449771867063609  0.4418305025594296
  0.8764819359644860  0.8601704196669123  0.3417602222391228
  0.6646037764880631  0.0602361647596310  0.6017262332574085
  0.2507926615173589  -0.0261909440204040  0.9149973911222098
  0.9801769694906013  0.0356009673804875  0.8637603782770827
  -0.1008740413208917  0.8153414810137062  0.6129364345797145
  0.0736319575311504  0.9462346898697787  0.6781960373180963
  0.7942998244713524  0.5964483317345577  0.4348204535264291
  -0.1063810100926487  0.4459630222489990  0.3748103172212803
  0.1142422039585361  -0.0228300626871340  0.7710996429471423
  0.9000566818998719  0.2938226508219695  0.4211593723535479
  0.2244297368102529  0.1078156296752481  0.5190880818527868
  0.1817474149602199  0.0895037251374609  0.6224157274785574
  0.8760601822956297  0.5052315671364652  0.9110624763715803
  0.3041567682131212  0.3879030152659204  0.3633836488517289
