pzc_combine
1.000
11.0985002518  0.0000000000000000  0.0000000000000000
0.0000000000000000  14.4173002243  0.0000000000000000
0.0000000000000000  0.0000000000000000  26.7964000702
Pt  H  C  O  
96  166  6  81  
Direct
  0.0000000000000000  0.0000000000000000  0.0018699899937576
  0.1249999521128992  0.1666699702868031  0.0018699899937576
  0.2499999943280624  0.0000000000000000  0.0018699899937576
  0.3749999464409617  0.1666699702868031  0.0018699899937576
  0.4999999886561249  0.0000000000000000  0.0018699899937576
  0.6250000308712881  0.1666699702868031  0.0018699899937576
  0.7499999829841874  0.0000000000000000  0.0018699899937576
  0.8749999350970866  0.1666699702868031  0.0018699899937576
  0.0000000000000000  0.3333300219343480  0.0018699899937576
  0.1249999521128992  0.4999999922211510  0.0018699899937576
  0.2499999943280624  0.3333300219343480  0.0018699899937576
  0.3749999464409617  0.4999999922211510  0.0018699899937576
  0.4999999886561249  0.3333300219343480  0.0018699899937576
  0.6250000308712881  0.4999999922211510  0.0018699899937576
  0.7499999829841874  0.3333300219343480  0.0018699899937576
  0.8749999350970866  0.4999999922211510  0.0018699899937576
  0.0000000000000000  0.6666699625079541  0.0018699899937576
  0.1249999521128992  0.8333300141554991  0.0018699899937576
  0.2499999943280624  0.6666699625079541  0.0018699899937576
  0.3749999464409617  0.8333300141554991  0.0018699899937576
  0.4999999886561249  0.6666699625079541  0.0018699899937576
  0.6250000308712881  0.8333300141554991  0.0018699899937576
  0.7499999829841874  0.6666699625079541  0.0018699899937576
  0.8749999350970866  0.8333300141554991  0.0018699899937576
  0.0000000000000000  0.2222199683821562  0.0864100026098289
  0.1249999521128992  0.0555599860957249  0.0864100026098289
  0.2499999943280624  0.2222199683821562  0.0864100026098289
  0.3749999464409617  0.0555599860957249  0.0864100026098289
  0.4999999886561249  0.2222199683821562  0.0864100026098289
  0.6250000308712881  0.0555599860957249  0.0864100026098289
  0.7499999829841874  0.2222199683821562  0.0864100026098289
  0.8749999350970866  0.0555599860957249  0.0864100026098289
  0.0000000000000000  0.5555599783168760  0.0864100026098289
  0.1249999521128992  0.3888900080300730  0.0864100026098289
  0.2499999943280624  0.5555599783168760  0.0864100026098289
  0.3749999464409617  0.3888900080300730  0.0864100026098289
  0.4999999886561249  0.5555599783168760  0.0864100026098289
  0.6250000308712881  0.3888900080300730  0.0864100026098289
  0.7499999829841874  0.5555599783168760  0.0864100026098289
  0.8749999350970866  0.3888900080300730  0.0864100026098289
  0.0000000000000000  0.8888900002512240  0.0864100026098289
  0.1249999521128992  0.7222199606033073  0.0864100026098289
  0.2499999943280624  0.8888900002512240  0.0864100026098289
  0.3749999464409617  0.7222199606033073  0.0864100026098289
  0.4999999886561249  0.8888900002512240  0.0864100026098289
  0.6250000308712881  0.7222199606033073  0.0864100026098289
  0.7499999829841874  0.8888900002512240  0.0864100026098289
  0.8749999350970866  0.7222199606033073  0.0864100026098289
  0.8682840297577222  0.2875141713226868  0.1708306185162070
  -0.0010093257959050  0.4499606517498995  0.1721976119968252
  0.1200112641150753  0.6153540163190122  0.1691475881247421
  0.1244748824036784  0.9473293158368096  0.1756586883674210
  -0.0020829828783624  0.1223519667730056  0.1682537651322038
  0.7537210702358907  0.7851082152622355  0.1721842847924596
  0.1273224482263556  0.2831329171823633  0.1688511384755657
  -0.0021876097625048  0.7828893206979064  0.1706138937925581
  0.2527577518183176  0.7881426450389188  0.1694334996792766
  0.8789319026251247  0.9491637823935525  0.1713610390937012
  0.3739702554340036  0.9559211829875829  0.1705979006330711
  0.8648602829687057  0.6168310263395227  0.1717907519159398
  0.2491390779444771  0.1187597713345899  0.1745667003009888
  0.4981633579368803  0.1242906180992013  0.1742945003643969
  0.6295170398421056  0.9535813847677231  0.1729269767603307
  0.2592126863837677  0.4528220259294056  0.1722954105553306
  0.7468085128849498  0.1146091610282900  0.1707995806417978
  0.7418113989558849  0.4510590642441686  0.1742653694252426
  0.6199359571113326  0.2873611896710817  0.1719813008847051
  0.3761374683415403  0.2874545736735685  0.1726130715873238
  0.3811959656093035  0.6185104331024609  0.1719501825666544
  0.5044450084768884  0.7870571682952479  0.1709256760236829
  0.4995104246991282  0.4460215601574056  0.1720241531595253
  0.6210515810982755  0.6225199265790946  0.1703724124262907
  0.0039566384379617  0.0240681630195329  0.2542877174862669
  0.1270765453982183  0.5215708398876114  0.2549175900831748
  0.8749015989638038  0.8490205900664258  0.2595502230963702
  0.2418678291658945  0.3510040372448236  0.2562918075416218
  0.8696716675061201  0.1843556311132481  0.2535821816959939
  0.6129434713484555  0.8549471705128804  0.2619709729108999
  0.7447617247257735  0.3543440526049003  0.2636946715151525
  0.2379429636965321  0.6875408557278121  0.2544604417435505
  0.1222653753402332  0.8536429448390397  0.2618424489975765
  0.7432094241437912  0.6871474825433903  0.2602583217532902
  -0.0076575913025921  0.6797144941799116  0.2562184443549680
  -0.0020892749357049  0.3554868615111219  0.2584033242398265
  0.2455646675286585  0.0221799274292026  0.2670400296104622
  0.8821813654337731  0.5186023457844045  0.2623631314946078
  0.4950353205162955  0.0152376644296915  0.2586971886424840
  0.3680764688487944  0.8517547775555342  0.2608880632094482
  0.6213541081986786  0.1868422779848707  0.2611466543702701
  0.3711568901872050  0.1862473799341564  0.2604071233232606
  0.1175958007559019  0.1933975586774866  0.2645383808507638
  0.7472058155835090  0.0186802534670166  0.2606673571524963
  0.3650370210554289  0.5192087412096217  0.2604251558574344
  0.6299770991640101  0.5224535530309883  0.2650213200241638
  0.4988613315841525  0.3533785795979264  0.2670093565873006
  0.4898444590761963  0.6839016315676905  0.2598502743450057
  0.6488114562264518  0.7736206549060426  0.4090233157769911
  0.7534334429504400  0.7062822413961625  0.4236784935721876
  0.1243218114065656  0.9552956382698000  0.4055825928232188
  0.1502102867574041  0.0359608625424995  0.4420615493524234
  0.7087779318673439  0.7975777795497980  0.7738156367190422
  0.5599979218085799  0.7955720403163693  0.7714199823575674
  0.6504338145894278  0.6037189735724328  0.8621530659520255
  0.6833549453738094  0.6668566061068344  0.9113164175495807
  0.3824558452941945  -0.0141643837072773  0.8321238119853752
  0.3917135712813914  0.0669978167252114  0.7957566371578976
  0.0448528548728253  0.5256503758399022  0.9142544459150982
  0.1491495352294586  0.4516327996364620  0.9007832068809624
  0.1000536702082701  0.6984157613454215  0.8200856510064780
  0.1118086742664843  0.7934999818633138  0.7917509437916691
  0.5846482655120572  0.0993265485091560  0.3479842141657651
  0.4621992818054891  0.1074386171822407  0.3755041777940174
  0.7051301950126788  0.3357025911163608  0.8753120322488503
  0.7693101329267655  0.2585914848063042  0.9044570439427354
  0.7383026418881286  0.2479523904464968  0.7856851700469056
  0.7673195599845866  0.1956642279353633  0.7377318576268165
  -0.0296810286548918  0.1737253022433753  0.8497227498824268
  0.0035918263635246  0.1935069395931550  0.9090868770425169
  0.5159123413067777  0.5822844767739862  0.6550924099958394
  0.3749883870593255  0.6094483964751185  0.6457198531582775
  0.5154339839990739  0.3892950217780810  0.5135370102942821
  0.5217497563836024  0.3431374144835911  0.4617182316127308
  0.4742428622503624  0.9010909473538943  0.3688651226510154
  0.5403917379221841  0.9241726299243326  0.4191745205316366
  0.4601455312281258  0.8539664882228515  0.5952533271601117
  0.5354754668799636  0.9042958656590649  0.6385570489197540
  0.2875058743709529  1.1779642081098840  0.3503698108665357
  0.2486949007324074  1.0931987302612505  0.3825629915788717
  0.6532996100643472  0.5856273493541638  0.4710217826138687
  0.5500009711951844  0.5129469419756820  0.4738465372899334
  0.1050331614680047  0.3104717302935495  0.7051922875869707
  0.1724229594885704  0.4098878150945158  0.7022239759894566
  0.9365023982600077  0.4858775682005411  0.7905808639108695
  1.0510666148886270  0.4367912799156372  0.7635138710872104
  0.0090589153235991  0.1114004233950105  0.3760935144645637
  -0.0021181709840649  0.1895236220436456  0.3380593877785162
  0.6201318101230625  0.9961356317179207  0.8648080395870518
  0.5806266298146789  0.9197246531740173  0.8245860592510209
  0.5307477976174891  0.3276993812084807  0.9151691309711426
  0.4586218018488111  0.3176005825683165  0.8667770473180073
  0.6367301093004782  0.1155786649494500  0.9175496830875793
  0.6047884327264290  0.1762135074858198  0.8680700839090878
  0.2512804066970846  0.9082473385432863  0.5116185060785919
  0.3024910795001798  0.8117210837487575  0.5035551370986562
  0.1409701245306773  0.5675535419529135  0.4018447883518120
  0.0542221744872601  0.4797867504237154  0.3946454571172205
  0.0950361413587331  0.6741530327861301  0.4581462804868613
  0.2398211973882076  0.6974687137090695  0.4473285822199076
  -0.0612343308718471  0.2227795818586379  0.6919366880411564
  0.8334756191585203  0.2547915429900368  0.6588834978596519
  0.1035806198872280  0.3168009314255479  0.8717861356451094
  0.0890703588658002  0.3995627493343467  0.8354457144075962
  0.7226279557635970  0.5994536658072276  0.6346706707634652
  0.6217766551188573  0.6509830733483035  0.6004612271815476
  0.5433138608995423  0.1805323298403028  0.5558261979923049
  0.5112307881490370  1.1545947445585787  0.5025766720648712
  0.2652006161843929  0.7296991456048276  0.6216708964173808
  0.2051362827000661  0.6322729572236949  0.5910180412484711
  0.4415883643382484  0.1399543316576782  0.6938978636603562
  0.5079967669943158  0.1216870395500959  0.6417650183363472
  -0.1173136849808906  0.1696690458853761  0.5120643999213730
  0.0061297844174006  0.2312206036939801  0.5159201583564361
  0.8357404543010816  0.0722637058874582  0.3482188911628067
  0.8148195127114876  0.9564275947003454  0.3467692821930108
  0.8070906255236815  0.6230180358289732  0.7807824320688254
  0.7398246944913404  0.5324796742985725  0.7890100084829118
  0.8278806716619045  0.5622195489026486  0.6982688714895107
  -0.1117571012803137  0.5332388666251324  0.6473130845657857
  0.2111179977510914  0.4573319564148934  0.4623200173025158
  0.3370524551633276  0.4193236588643992  0.4847094478837977
  0.6625812706818071  0.8882120405536432  0.7107134892973651
  0.7746365341214146  0.8817965821071232  0.6747528700285244
  0.5229671319382687  0.5530011856146320  0.8031193677442127
  0.5619022345103407  0.4654713652413956  0.8407046976900826
  0.7003073993118526  0.0490156119596456  0.4866688553811648
  0.6287964412280088  0.0581558697783662  0.4307439841755524
  1.0608023851952930  0.8248534650444513  0.5525786657502119
  0.9567975755172654  0.8200825429765272  0.5941900545068688
  0.6806776123354846  0.2806692365800733  0.4229802915282196
  0.5589108271627925  0.2233941014331881  0.4202677472196714
  0.3721553045989363  0.7184321911492207  0.8929625724953363
  0.4068397070466966  0.6259035101794262  0.9131056400785175
  0.7800694476982036  0.8174778481920830  0.9151237773491331
  0.7402515471193999  0.8778892823198127  0.8737889069113768
  0.1916532065812247  0.5906763956990064  0.8655160539453348
  0.1199058837867908  0.5518159201742135  0.8147173284398965
  -0.1562313455657023  -0.0023870305372427  0.5487395348285025
  0.7446725028599777  0.0541116387023062  0.5821413688754339
  0.3333297840489760  0.3818799561599139  0.6514203216764302
  0.3676340288354058  0.4670578653450314  0.6869127792008898
  0.3095883638821146  0.5920570373788162  0.7835901463962313
  0.4030357594734059  0.5799015748321862  0.7401843798397940
  0.4538338396201864  0.2227999425014374  0.7709232295861083
  0.5683328738742877  0.1514240477645319  0.7639166997011929
  0.4655042742700385  0.8835311152104742  0.8952498088531841
  0.3263454450534952  0.8994189575413100  0.9049463621521087
  0.1779376856868307  0.1834113634495246  0.8768692365595295
  0.2861312292879359  0.1961129893677635  0.9167098738691379
  0.9097567502386134  0.3975024416735590  0.6032085727394261
  1.0009042933794925  0.4135336708845899  0.6490130140443973
  0.1352498973324391  0.1461370021655560  0.7252211688021328
  0.1421505820341923  0.1387672198244132  0.6646057910482257
  0.0806783197806189  0.4948009798655879  0.5855424411971354
  0.1760929095246930  0.4903006991687454  0.5397257641627701
  0.3359318180305778  0.3605575918394521  0.7558960892931922
  0.2701003654087244  0.3325442695449440  0.8055787822150874
  0.8404549094177999  0.2583035317197060  0.5658315988856197
  0.7270839747011086  0.3235382320011635  0.5870153899662461
  0.3708739450749146  0.2965476649014974  0.5735564081681248
  0.4093851946854807  0.2594187685358819  0.6270805746286421
  0.0637781892544625  0.6148951381242689  0.5223435149024304
  -0.0083030317979273  0.7043627157866897  0.5164821693153913
  0.5008030677296740  0.7261602141123695  0.5273391623830361
  0.4222969719390569  0.6885564108506306  0.5728913181428487
  0.3815843342539140  0.8278974266681423  0.7950784836726386
  0.3954350222849449  0.7235109095334427  0.7922822317879188
  -0.0345502544938727  0.9071120196593520  0.8973649628347456
  0.0382374810894988  0.8820195128535179  0.8517549395891539
  0.3544365583504865  0.8571417802531056  0.6500814799064157
  0.3449386438387574  0.7984350296526411  0.7014289137704950
  -0.2121641405034076  0.7229156122887107  0.8321315966317999
  0.8963072927071066  0.7469377900759402  0.7956695387344568
  0.1769196485877941  0.3172074104617632  0.4969906263084317
  0.1926970374536096  0.2105254011901779  0.4822843664127882
  0.1077886235219917  0.8366659988580258  0.3456359788268705
  0.1341701108632667  0.7796521830664559  0.3999947785717621
  0.6088552607550790  0.4728971559604897  0.5900381000014675
  0.5338526365433082  0.3830347519636343  0.5945669924117193
  0.4565080671217974  0.6714737745408942  0.4555894946939744
  0.4301116208224439  0.7757575651195147  0.4341818373632442
  0.8379055370108921  0.7922130790374484  0.3637618555613409
  0.9647616945959369  0.8414840892715778  0.3597090034649590
  0.6984655235055531  0.0196326194846749  0.6601622432362784
  0.7399864872614680  0.1245012395090878  0.6556707884668056
  0.2513513267657553  0.0520040110516879  0.9077590686426279
  0.1445985267009137  0.9655348159732087  0.9069642276735349
  -0.1585560130175786  0.0643629445848662  0.8434226916261784
  0.8366574516402805  0.1248509528064153  0.7951753739262993
  -0.1052567397933372  0.7578231982701515  0.6671818067488109
  -0.0281795134481595  0.8448057075673031  0.6884096595950815
  0.0831869332390440  0.9459180780264387  0.7376238196070669
  0.1576954838935241  0.8742584121370740  0.7002089194759495
  0.8252288287703184  0.5537441290182761  0.4227348675689276
  0.8791378851225914  0.6003628206487081  0.4707325556587666
  -0.0678199208111857  0.4520795789709967  0.3426196297841539
  0.9031812728728166  0.3934099980064324  0.3956116377359669
  0.0304932985107706  0.0539107676338715  0.7994989600384816
  0.1783523296293087  0.0328496933289738  0.7934031731315809
  0.8812873992424051  0.2524504348508644  0.4006050702847220
  0.8749742998676822  0.2847756076050877  0.4536634378592955
  0.3478229785572982  0.0814466099985105  0.5229247852581198
  0.2325563177674748  0.0608906159504370  0.5527711839611090
  0.3075902995764078  0.0921515823649643  0.6358154330942125
  0.2313467901019848  1.0016068547883157  0.6300210304918766
  0.8442935227108970  0.4383893767674435  0.9032714233512840
  0.8158935452320587  0.5474325132036434  0.8986354538376718
  0.5047982058018481  0.3556216819122899  0.3640054848392625
  0.6947957378429908  0.4515341676958158  0.3601810788320554
  0.6818065692049471  0.6056208131036499  0.3549187687370207
  0.2978878524568039  0.6085197001178466  0.3456653506827146
  0.4813173010951303  0.6922998322027805  0.3619427006609702
  0.2288412637273298  0.4645530060136615  0.3831934640138160
  0.5082131791081607  0.4156523759697843  0.3403105692783433
  0.6128390169560873  0.4781492511254620  0.3462904652636328
  0.3925759455196087  0.4712682861905158  0.3461660529361834
  0.6012948973639631  0.5741421051042793  0.3402477938870372
  0.3814024447144086  0.5715811739295390  0.3353492011971193
  0.4862421557835946  0.6328029599552133  0.3336075480094621
  0.7332732911980705  0.7536444535701934  0.3999127253745327
  0.1233125164887064  0.0228198161362748  0.4066668474030835
  0.6318125460656485  0.8363330182843185  0.7682022096763821
  0.7154264655994608  0.6414587299994317  0.8803022713537184
  0.3409262518137379  0.0134122733377003  0.8037414441931509
  0.1317416472521019  0.5173795847455320  0.9170759783598270
  0.0517731975008793  0.7596990949137142  0.8119700742151819
  0.5503325131888339  0.1028482000951044  0.3816073333698245
  0.7867456249400775  0.3137730464872553  0.8843567414734127
  0.7243088348532715  0.1901551935416611  0.7689898992035090
  0.0277961920350425  0.2061148024781651  0.8733859831838718
  0.4397544537162524  0.5845183100922186  0.6727229486451481
  0.4769972689815820  0.3894551740024280  0.4809534406837138
  0.4920888017112258  0.8748335149629155  0.4014231026712580
  0.4600650552917618  0.9060983973533276  0.6187881554485331
  0.3055739402762969  1.1467718487774461  0.3821054761115745
  0.5647664017472469  0.5792905807859393  0.4689304126890584
  0.0915508334862819  0.3776456432337596  0.7115969257081509
  1.0231715803635983  0.4700311967894129  0.7938822254022729
  -0.0514730129241875  0.1567135610446580  0.3637300227070111
  0.5888724682274101  0.9321226402603048  0.8604009694212600
  0.5328406816624514  0.3429504113999308  0.8784048533137279
  0.6507329673960840  0.1199431367521488  0.8811547994373472
  0.2284733392413761  0.8427992607880898  0.5115687458945184
  0.1379327738765173  0.4991736353641357  0.4051313346404659
  0.1619544910861701  0.6849569539070530  0.4296445772095860
  -0.1477105573281508  0.2336954452485633  0.6911995665193007
  0.1449966918673544  0.3701260917564813  0.8597931205327030
  0.6372521822174078  0.5932789692957438  0.6200221015164145
  0.4761383227560814  1.1685240889903135  0.5326978042388013
  0.2798213863441884  0.6720375215582658  0.6007552123392315
  0.4279557082345139  0.1378394200427693  0.6564197866287759
  0.9170465612278844  0.2334433119751039  0.5120176515821663
  0.7703194736616260  0.0202529536221943  0.3447500504992666
  0.8068760055528784  0.5553040187028992  0.7691878662731939
  -0.1647900294549597  0.5832447621800337  0.6624803734566538
  0.2467273649659007  0.4217815969005561  0.4921806811082428
  0.7025354417265014  0.9163757347531731  0.6797988503783390
  0.5907399781007949  0.5182930886606272  0.8187876965868961
  0.6403000359933730  0.0228960286228643  0.4623319585408598
  0.9724861985158332  0.8192079215145460  0.5557880902540518
  0.6007484909520683  0.2754576755158624  0.4370655985437594
  0.3744819209177323  0.6546575938740473  0.8817975075569038
  0.8071286219818005  0.8426884341995369  0.8828960388791293
  0.1791807470002512  0.5944769241507651  0.8285849338729582
  0.7929857554287684  0.0504200457152715  0.5498371572077381
  0.3168883264231670  0.4092204551831378  0.6864964897974335
  0.3976524602938334  0.5951460934022827  0.7745733639154867
  0.4747929739917222  0.1586300392319839  0.7590676305478891
  0.3874429087481980  0.8469576351555009  0.9004679135214861
  0.2706889450863201  0.1721342441088338  0.8810157434189927
  0.9769722336981026  0.4368018442929915  0.6172309901654842
  0.1057523633888863  0.1707334288947648  0.6935639308269697
  0.1332534306209655  0.5342862232220735  0.5624213626538647
  0.3434943546432510  0.3189334855529967  0.7846474264907880
  0.7994724930749944  0.2829104653397781  0.5961511018998893
  0.3976876539948866  0.3186421853903684  0.6069167393005943
  0.0088179752470725  0.6470417489313904  0.4984136573573824
  0.4978630239436041  0.7232890498960461  0.5623858832985218
  0.4036484706997626  0.7795651979943211  0.7723789693943588
  0.0260746825908361  0.9350125578906371  0.8733494747723898
  0.2982735822944282  0.8164493582481053  0.6718416435915540
  0.8088097816319048  0.7321245876054778  0.7960888171476229
  0.1414840522389796  0.2526954250879441  0.5006092836783012
  0.1116085163217530  0.8397416507006130  0.3813447738363958
  0.6130304983230995  0.4037225907933540  0.5814442903144680
  0.4184190852585551  0.7320202778889149  0.4634948686414093
  0.8838786905202816  0.8444277833640730  0.3469096124310334
  0.6817994313126010  0.0811288180521184  0.6421806015852474
  0.2326301312991605  -0.0177691086829288  0.9170243794362261
  0.8931157394795204  0.0921354165713432  0.8186655702008357
  -0.0917474732890018  0.8231868724490150  0.6615196228732712
  0.0913226373117953  0.8808596043866183  0.7241675886635307
  0.8080156243944375  0.5971526192254214  0.4509853164806030
  -0.0713822507479343  0.4569214408809223  0.3811728272992517
  0.1042724765909078  0.0428261672916628  0.7757299972587270
  0.8494005154859620  0.3051035631058014  0.4195731136848967
  0.2650381205174935  0.0570057170284046  0.5181105746827424
  0.2319315354236734  0.0666933845408415  0.6212334295311838
  0.8783096820238430  0.5009453100260082  0.9069327176834696
  0.2971172667645062  0.4186491130653454  0.3628702035955021
