pzc_combine
1.000
11.0985002518  0.0000000000000000  0.0000000000000000
0.0000000000000000  14.4173002243  0.0000000000000000
0.0000000000000000  0.0000000000000000  26.7964000702
Pt  H  C  O  
96  166  6  81  
Direct
  0.0000000000000000  0.0000000000000000  0.0018699899937576
  0.1249999521128992  0.1666699702868031  0.0018699899937576
  0.2499999943280624  0.0000000000000000  0.0018699899937576
  0.3749999464409617  0.1666699702868031  0.0018699899937576
  0.4999999886561249  0.0000000000000000  0.0018699899937576
  0.6250000308712881  0.1666699702868031  0.0018699899937576
  0.7499999829841874  0.0000000000000000  0.0018699899937576
  0.8749999350970866  0.1666699702868031  0.0018699899937576
  0.0000000000000000  0.3333300219343480  0.0018699899937576
  0.1249999521128992  0.4999999922211510  0.0018699899937576
  0.2499999943280624  0.3333300219343480  0.0018699899937576
  0.3749999464409617  0.4999999922211510  0.0018699899937576
  0.4999999886561249  0.3333300219343480  0.0018699899937576
  0.6250000308712881  0.4999999922211510  0.0018699899937576
  0.7499999829841874  0.3333300219343480  0.0018699899937576
  0.8749999350970866  0.4999999922211510  0.0018699899937576
  0.0000000000000000  0.6666699625079541  0.0018699899937576
  0.1249999521128992  0.8333300141554991  0.0018699899937576
  0.2499999943280624  0.6666699625079541  0.0018699899937576
  0.3749999464409617  0.8333300141554991  0.0018699899937576
  0.4999999886561249  0.6666699625079541  0.0018699899937576
  0.6250000308712881  0.8333300141554991  0.0018699899937576
  0.7499999829841874  0.6666699625079541  0.0018699899937576
  0.8749999350970866  0.8333300141554991  0.0018699899937576
  0.0000000000000000  0.2222199683821562  0.0864100026098289
  0.1249999521128992  0.0555599860957249  0.0864100026098289
  0.2499999943280624  0.2222199683821562  0.0864100026098289
  0.3749999464409617  0.0555599860957249  0.0864100026098289
  0.4999999886561249  0.2222199683821562  0.0864100026098289
  0.6250000308712881  0.0555599860957249  0.0864100026098289
  0.7499999829841874  0.2222199683821562  0.0864100026098289
  0.8749999350970866  0.0555599860957249  0.0864100026098289
  0.0000000000000000  0.5555599783168760  0.0864100026098289
  0.1249999521128992  0.3888900080300730  0.0864100026098289
  0.2499999943280624  0.5555599783168760  0.0864100026098289
  0.3749999464409617  0.3888900080300730  0.0864100026098289
  0.4999999886561249  0.5555599783168760  0.0864100026098289
  0.6250000308712881  0.3888900080300730  0.0864100026098289
  0.7499999829841874  0.5555599783168760  0.0864100026098289
  0.8749999350970866  0.3888900080300730  0.0864100026098289
  0.0000000000000000  0.8888900002512240  0.0864100026098289
  0.1249999521128992  0.7222199606033073  0.0864100026098289
  0.2499999943280624  0.8888900002512240  0.0864100026098289
  0.3749999464409617  0.7222199606033073  0.0864100026098289
  0.4999999886561249  0.8888900002512240  0.0864100026098289
  0.6250000308712881  0.7222199606033073  0.0864100026098289
  0.7499999829841874  0.8888900002512240  0.0864100026098289
  0.8749999350970866  0.7222199606033073  0.0864100026098289
  0.8733296474384461  0.2824334097265220  0.1699233550652842
  -0.0032984288389833  0.4503223566959622  0.1716118826989016
  0.1200462918837990  0.6207117406708854  0.1726773360667123
  0.1296943678013207  0.9506556772119559  0.1698171325767207
  0.0045383625406352  0.1198749047680258  0.1715731185888988
  0.7599659186322999  0.7818788454720770  0.1696617191260672
  0.1262035762149785  0.2955900299361987  0.1737019122272442
  -0.0018363916328870  0.7872022305653998  0.1745164728302661
  0.2517295543014370  0.7827927481372785  0.1732268967861157
  0.8788010762641698  0.9552260179744337  0.1717256573735598
  0.3788646950760796  0.9503842187322744  0.1757838852629447
  0.8789469485048572  0.6194165340781471  0.1722278259172727
  0.2497492323208671  0.1204624241626572  0.1712917361987177
  0.5029750673920690  0.1078536104130756  0.1718875270086092
  0.6319320702869310  0.9484975866668511  0.1764036589249475
  0.2387900514729617  0.4579569009370872  0.1728384741109529
  0.7483436275683266  0.1184311928263880  0.1722514570878158
  0.7463767376998997  0.4500961320110865  0.1725151569572568
  0.6298728961569585  0.2844853494197898  0.1715059200400160
  0.3817236908214601  0.2792622627996555  0.1725211298677814
  0.3719658238085332  0.6154537461489824  0.1751012133461172
  0.4963265444451931  0.7824338092846855  0.1751673557419374
  0.5003432356817203  0.4527852279442249  0.1729041887739445
  0.6271312226596709  0.6161616531108419  0.1699926661665938
  0.0045651879488657  0.0199243132161345  0.2575670087705362
  0.1254673055014040  0.5210422851595109  0.2594325874702509
  0.8795630904560088  0.8447610155799008  0.2565426480232683
  0.2512996783549796  0.3501659545724773  0.2558301969234942
  0.8752888885076593  0.1862062903757243  0.2591239909021173
  0.6260193613883249  0.8473637285439239  0.2573897792289724
  0.7611924966916005  0.3505432403482727  0.2569647710685418
  0.2538883748137953  0.6815115370101865  0.2556835409178477
  0.1292793771543409  0.8519365825508677  0.2596711861918423
  0.7573712366620643  0.6837145428507992  0.2556931044002308
  0.0048926010423069  0.6833452965136086  0.2645070199590843
  0.0042465749002759  0.3528559461795490  0.2616249865106479
  0.2590688882161061  0.0223818572326129  0.2605737912483662
  0.8841361729219724  0.5127293883872014  0.2597413202768342
  0.4995888375459323  0.0104709549049659  0.2591498444010270
  0.3747525760361581  0.8468959246212012  0.2656379109190868
  0.6187244045416223  0.1832708439161528  0.2592692574599311
  0.3673130242024220  0.1822855378894352  0.2614809919371271
  0.1310803538761064  0.1882812416866207  0.2629242478333925
  0.7483775959056197  0.0243926471411935  0.2627268303076747
  0.3738714302706829  0.5187264588965795  0.2630673053071560
  0.6371618709882093  0.5190242149835870  0.2604276159677412
  0.4998651675302023  0.3500999358668117  0.2611731509891494
  0.5064902948745995  0.6827022807508950  0.2641557786477386
  0.6751109629505843  0.7680558552728369  0.3965984272760069
  0.7760963967003583  0.6852072058712813  0.4138210051592663
  0.1071676609735715  0.9781111190728969  0.4131506845097409
  0.1097756325141682  0.0627030384493427  0.4521209724090217
  0.6685628326761165  0.8564298179827562  0.7766210116538491
  0.5236741785952013  0.8739672734609907  0.7637899383417902
  0.6278185523733196  0.6477735446099058  0.8587869284087847
  0.6346918981199784  0.6641593855388354  0.9174523092726952
  0.3095284834401701  0.0965522209875175  0.7619637977829163
  0.2926722716047323  0.0825268773965459  0.8194343234007445
  0.0656668786921728  0.5662530101398632  0.9155020390101564
  0.1124049800240056  0.4682155285094475  0.8890104070842153
  0.0965488932999044  0.7870014329711928  0.7928776353592270
  0.1835796766657329  0.8643260073752836  0.7774373450621688
  0.4977222686375214  0.1412880909122430  0.3438997538907554
  0.3989496641748411  0.1641629863412874  0.3838426792313238
  0.6120113584714637  0.3548524176584106  0.8705003221212878
  0.7519560659420157  0.3780731261469344  0.8638153875095221
  0.6435679389872138  0.2629322190163417  0.7748012367224311
  0.6912420722030226  0.2052604416818740  0.7317129860590881
  0.0230299647881295  0.1766317170053690  0.8711999439604485
  0.0631797496140324  0.2373568794407311  0.9130549386374119
  0.4181445572474839  0.5614964055860914  0.6652773100938011
  0.2842599827745493  0.6013028452156626  0.6504654533234809
  0.4647655047413655  0.3983312667041885  0.5219923178992752
  0.4956692387611376  0.3562530027323043  0.4655321520920587
  0.5105644493255730  0.8647397947007320  0.3618191921116378
  0.5662517517338207  0.9064907275200024  0.4154863975471650
  0.4882366062226448  0.7957125397766348  0.5881475077290996
  0.5454995382027495  0.8730291674432493  0.6212102943414427
  0.2694498607606906  1.2592960205614021  0.3802904413653928
  0.1813775946775800  1.1797193694650834  0.3753874796035213
  0.6197088832596570  0.5955177098850255  0.4693178682865566
  0.5046289680348178  0.5215449556100981  0.4756283497675393
  -0.0128188293438049  0.3286855918150986  0.6981514549973045
  0.0908582639926016  0.4020072874345242  0.6896645382023536
  0.8937130070156385  0.5310691259168634  0.7784117309062224
  0.9816386138688469  0.4643417422505009  0.7509922064187856
  -0.0404313408225786  0.0943937496429624  0.3918604548294322
  -0.0396763514988057  0.1552503947047878  0.3469134258798450
  0.6136150831095842  0.9254574637844736  0.9292005529836143
  0.6413706899673703  0.9942430516803621  0.8882540809677629
  0.4708539619713449  0.4756398874001355  0.9182424762408151
  0.3691061180483019  0.4603366658421817  0.8782294720838729
  0.6489946469687928  0.1742793078183260  0.8929055394985158
  0.6460113368954674  0.1404875462457356  0.8370769807338745
  0.2536161141090654  0.9163519447443181  0.5335227923619106
  0.1846068546394552  0.8224347303606008  0.5190831334306237
  0.1280703033339548  0.5730163426419950  0.3895092887199940
  0.0485518903072157  0.4786817959209889  0.3733625935681639
  0.1130449054498619  0.6819946743099329  0.4470285602028106
  0.2348504969468527  0.7107852906349219  0.4223432962767947
  -0.1300126946580892  0.2085142087235656  0.6884059202159210
  0.7794981604831610  0.2738805947901883  0.6591780811424556
  0.0545735176427795  0.3447740027999134  0.8542477371561780
  0.0330841938522683  0.4409764922134500  0.8210212338061944
  0.6390053374688882  0.6026355689296082  0.6432282568123097
  0.5139455766895079  0.6215704310641903  0.6143873816770165
  0.4335846039846282  -0.0680184327053932  0.5506465275949237
  0.4277750710984581  0.9919152913314838  0.5001582952556645
  0.1698774721561339  0.7126516464353406  0.6152302337706124
  0.1804760014196641  0.6262391400979769  0.5784059174178585
  0.3842184538950122  0.1552512827975513  0.6764572418016115
  0.4344195973431675  0.1159782518977949  0.6245442908322383
  -0.1980441191902050  0.1676008358158000  0.5200264310539530
  -0.0799665155349310  0.2330262001853484  0.5201535985089496
  0.7898450677854675  0.0719094937103827  0.3562070436996860
  0.7820922098273804  0.9575842853248421  0.3485927440935644
  0.8036442106989582  0.6600883568727974  0.7781515774422593
  0.6745559402934463  0.5970936198922060  0.7814732176949358
  0.7537341895129730  0.6486522287742715  0.6973332114741982
  -0.1664934325969233  0.5845714794989781  0.6575387644922742
  0.1649389129403416  0.4717716863338913  0.4557494162725736
  0.2815987281698824  0.4193940001754785  0.4806241113754156
  0.6408079659003066  0.8717773220131610  0.6954871300501859
  0.7453845696906938  0.8570813958478107  0.6566773271111512
  0.4655574498240874  0.6346909468512704  0.7876330183647118
  0.4931023974714435  0.5539047356272788  0.8296127512636468
  0.6048243608330157  0.0233106742296696  0.4699540057249940
  0.5171272898127989  0.0464193263640311  0.4259379581473316
  1.0053961374637339  0.9025000882806926  0.5292240101673537
  0.9249939344223568  0.8456163973162966  0.5676966819030800
  0.6596261004105192  0.3021853955261953  0.4236756358748925
  0.5538456599037404  0.2228009964019433  0.4075951319015547
  0.2997666863106500  0.7550347871547167  0.8987694195528648
  0.1614671277688496  0.7547541953700508  0.9006633375592779
  0.8225050336706070  0.7643496286999909  0.8892269011462834
  0.7798738253212389  0.8661382538495551  0.8939291572616536
  0.1639967868275541  0.6689190980531338  0.8406097664421039
  0.0752873519613141  0.6048014459255919  0.8081781615204241
  -0.2159834811114438  -0.0101752542097127  0.5229571157427271
  0.7030146805857460  0.0461582526719083  0.5551468848848610
  0.2549151410742323  0.3671439271603988  0.6521229767625863
  0.2786707647006984  0.4632381690258008  0.6769645263086492
  0.2716646723426441  0.6467623943686539  0.7710553556138852
  0.3471245355493122  0.6437782466342894  0.7245754154488964
  0.3620296102663372  0.2397783425064137  0.7460108109794615
  0.4808887061325606  0.1836295398938702  0.7462606806926489
  0.4821745161317706  0.8661248237068108  0.8849416048005365
  0.3505807970287656  0.9118667909017832  0.8893674723793645
  0.2125746348942386  0.1862519424041734  0.8801154812443422
  0.3535725109762978  0.1725700350060373  0.8856574929552792
  0.8452470354792807  0.4495877880294826  0.6244361648715716
  0.9621983549325092  0.4733419569912118  0.6574018574043674
  0.0303421757588719  0.1591653635770366  0.7230112582229183
  0.0721121732974866  0.1628618159620799  0.6696279619759413
  0.0303924590843068  0.5104893008397723  0.5818632188522788
  0.1189815731171275  0.5028751246214693  0.5343272937853676
  0.2789032429041909  0.3505779138927104  0.7366434022811882
  0.2403324820637276  0.3146068877691159  0.7874090118681571
  0.7718234765918680  0.3178913650958894  0.5746110485424275
  0.6569582867484708  0.3588183010353572  0.5984328957990629
  0.2298360478017104  0.2999444436213758  0.5788414434052832
  0.3239142882946688  0.2477435847926528  0.6131135104588464
  -0.0039496527824010  0.6349571314586723  0.5209335978799563
  -0.0315000480396709  0.7351678628177154  0.5003304074643163
  0.4893981845176859  0.6603220976528028  0.5237926325413025
  0.3777067342878267  0.6924903488776966  0.5640764929879324
  0.3338890514057518  0.9435089246093893  0.7833907236011542
  0.3657888909577292  0.8513461937493878  0.8109761801088755
  -0.0172359295184027  0.8628729433567727  0.8924447428143474
  0.0730688172456883  0.8802119557315488  0.8513373785260751
  0.3447794288223219  0.8265305684219093  0.6480295930314640
  0.3138420554286228  0.7976328489239284  0.7029266800598045
  -0.1581539931411294  0.8176781624294971  0.8161148129117620
  0.8802465268598391  0.8304448719129944  0.7623782378969207
  0.1148731809230917  0.3199740787408055  0.5110897719328529
  0.1181713821727662  0.2078419537972470  0.5114701547967188
  0.1902402658915620  0.8683465432105782  0.3530406067089814
  0.1244763256527334  0.8059573630585314  0.3944927220673901
  0.5316716239514425  0.4631696174395382  0.6057076225530044
  0.4336523811601866  0.3649042449870626  0.6033661782531867
  0.4156231328148934  0.6883332224207624  0.4520172528947317
  0.4126849692017772  0.7836995325626986  0.4231240394380100
  0.8382621565640032  0.7972594482860664  0.3592631899949144
  0.9665292849959837  0.8539064164211601  0.3567517410904461
  0.6654575479603360  0.0198748089824087  0.6447475002514788
  0.6958448163433143  0.1212038102081517  0.6454504717010261
  0.2397512118512091  0.0479846728331267  0.9015384850469464
  0.1638626773653537  0.9469719302778048  0.9088604188546968
  -0.0680425512607006  0.0248850708536466  0.8820537298771413
  0.8178343843464704  0.0957026574208690  0.8755761173304830
  -0.1350660389052909  0.7510946746984155  0.6489277258827780
  -0.0529248749086378  0.8480701469053059  0.6613678364919160
  0.0631782505916760  0.9210718595301188  0.7185943350358510
  0.1379947087491942  0.8793519550582534  0.6717694756288823
  0.8371327255584069  0.5344230933967457  0.4353197808526724
  0.8659201624148581  0.6256377709882882  0.4661359978234857
  -0.1210654898694156  0.4587355075711559  0.3420383616862305
  0.8905797584585319  0.3857045063352000  0.3911688531496749
  -0.0066565796480491  0.0877109468365391  0.7984628229444221
  0.1242034338537257  0.0646679149074367  0.7814648608634430
  0.8779728524238802  0.2371930126443653  0.4137611234588963
  0.8367561546429517  0.2853854125521458  0.4644250858173993
  0.2558695017409613  0.0481401653293031  0.5159076043641416
  0.1340440703201066  0.0729997253109918  0.5440614641111077
  0.2048279928210399  0.0836855963134096  0.6293477279231460
  0.1056630641793071  1.0169012889243507  0.6458576574413277
  0.8584906639394557  0.4815250136914637  0.9136762304585664
  0.7745791683075159  0.5534644382691577  0.8801131932952208
  0.5151598381477454  0.3521510310885203  0.3695364063664726
  0.6949525333253098  0.4308985434547007  0.3509897566934558
  0.6997536993739710  0.5848330383304745  0.3478487189690040
  0.3015466810353242  0.5825756381588983  0.3536014864936027
  0.4959437380385968  0.6711096185395402  0.3626379253609745
  0.2369643050621605  0.4470119403588205  0.3790299020051985
  0.5055548450782799  0.3992416807897520  0.3365380348209099
  0.6177800362249841  0.4568873750508182  0.3330545859824293
  0.3993984874921350  0.4523122099939914  0.3466767250699084
  0.6136219612461133  0.5561614147970143  0.3365728641859572
  0.3862228876559063  0.5515670741528237  0.3381962914443216
  0.4996885141396073  0.6060405360618916  0.3391224174289683
  0.7510472479602021  0.7360226789905261  0.3887859021550369
  0.0785796082005365  0.0394746634006252  0.4177933991943285
  0.6057715925545536  0.8902285156389715  0.7570094884446393
  0.6817305103698930  0.6669716667752114  0.8852321226641154
  0.2734943051434098  0.0549186570773824  0.7869136170328351
  0.1291790216310963  0.5187910957970742  0.9156199227069114
  0.1009537902401077  0.8530884209631669  0.7874388684346326
  0.4791664521553262  0.1448029708142782  0.3806194201303353
  0.6936937346783725  0.3282991216082420  0.8693698223780149
  0.6371908517326974  0.2041273839910543  0.7603448691213667
  0.0813144522795892  0.2239088832428567  0.8789147649647037
  0.3315997624096211  0.5666455866355972  0.6762635175630420
  0.4523417162860166  0.4090213245445761  0.4845002931284829
  0.5506240326758453  0.8438083152694190  0.3947736024199853
  0.4711055374488107  0.8556542622666344  0.6016987918138534
  0.2489662855530287  1.2021557646131011  0.3966898183805427
  0.5332021191458041  0.5877723846464077  0.4778418923644780
  0.0039935371982184  0.3964038297314075  0.6970590471319451
  0.9773804369505434  0.5127685082703435  0.7778330585151781
  -0.0921466572958032  0.1398891650186138  0.3738569622357944
  0.6397214336908720  0.9286943596993789  0.8951912922466291
  0.4562884171650742  0.4624963785980775  0.8819760108591186
  0.6649913371316106  0.1177988872380896  0.8720155769687161
  0.1746375205682094  0.8790358470054906  0.5381168997747531
  0.1249134517139066  0.5050064394184109  0.3875499310539474
  0.1484240760847698  0.6886593263741279  0.4142458251936806
  -0.2184913425853836  0.2135569196381558  0.6799899494844347
  0.0883742677882019  0.4066646363108988  0.8462558255397307
  0.5515657403717390  0.5784662761300668  0.6391718524178672
  0.3856957936731810  0.9811686547012181  0.5327463533348212
  0.2311063911526252  0.6675404766198020  0.6014935011746039
  0.3689410567915161  0.1482463215129289  0.6408651179826867
  0.8332225651930043  0.2349501752478395  0.5218074246454419
  0.7378751487050536  0.0163141017971983  0.3434292532389152
  0.7550004857224740  0.6055349418600232  0.7654477763679287
  -0.2107358713102408  0.6443084004065689  0.6637224321702424
  0.1952472861771170  0.4384651450793330  0.4841380210779624
  0.6568919278366097  0.8722977980720110  0.6580737759812221
  0.5307567829396261  0.6077159387256500  0.8108267567240360
  0.5377653297103834  -0.0010644496307383  0.4503712888964165
  0.9366341259319301  0.8561257800122761  0.5320427527447940
  0.5706542443581800  0.2902788900897148  0.4224609463638116
  0.2289816366484141  0.7132416901791521  0.8971339957390244
  0.8413359094248427  0.8270677499870783  0.8774999868750839
  0.1297727120803019  0.6554473067830433  0.8081698170674597
  0.7310197678901854  0.0463163090600356  0.5196806252152685
  0.2314214258979218  0.4055884187487614  0.6827030864920005
  0.3425981096124517  0.6798310060284454  0.7568143384959036
  0.3970565448412994  0.1761350666347308  0.7367063829052862
  0.3948195994579830  0.8547560974231103  0.8787258684902989
  0.2829370073574322  0.1420666697394412  0.8739302696686904
  0.9116785800188614  0.4958686421713264  0.6281644838001692
  0.0189772430257720  0.2010967969102390  0.6933632419513779
  0.0776578197995910  0.5470473632578413  0.5581312233777368
  0.3126723783906920  0.3315389121705050  0.7691034144515286
  0.7481208364304341  0.3580948045181369  0.6020583588219127
  0.2995549034889467  0.3096746110672584  0.5997554621179400
  -0.0072162716658055  0.6730932115878281  0.4888142830635920
  0.4590393803859876  0.6677012528930250  0.5589916842060419
  0.3537443772336050  0.8773432405521083  0.7765150491479692
  0.0692840591930688  0.8817008905782976  0.8879147085492225
  0.2741553947080841  0.8121404337384185  0.6690907617974738
  0.8191828910059690  0.8016137343051777  0.7820158842009556
  0.0838288638637556  0.2625834568610302  0.5273046932193581
  0.1294752443842081  0.8695342186237003  0.3802064311366269
  0.5101937148923928  0.3991639480878894  0.5907046845633194
  0.3617328051012010  0.7410436219877450  0.4418340026900350
  0.8791533160092979  0.8528665012174294  0.3430934886893328
  0.6898790377608197  0.0664251498894272  0.6216019687742959
  0.2383720395619156  -0.0149548472145012  0.9187611383694440
  0.9097028832578108  0.0900029879250851  0.8772272880244602
  -0.1169716220251877  0.8160873673885959  0.6393314783895945
  0.0646751122867781  0.9187221401393204  0.6807825891541051
  0.8011165109320053  0.5925926914180505  0.4503679035274952
  -0.0915950662194316  0.4528472227064962  0.3793762245065677
  0.0404004935015683  0.0824446531255966  0.7692892172006649
  0.8381926933768599  0.2929717151607058  0.4265516781006430
  0.1765722182402230  0.0829477247400571  0.5106079588435507
  0.1196444040522178  0.0684004074242603  0.6225599463060818
  0.8284118001717267  0.5002691044779286  0.8790549371740362
  0.3120689135848130  0.4039163577369938  0.3675726611595737
