pzc_combine
1.000
11.0985002518  0.0000000000000000  0.0000000000000000
0.0000000000000000  14.4173002243  0.0000000000000000
0.0000000000000000  0.0000000000000000  26.7964000702
Pt  H  C  O  
96  166  6  81  
Direct
  0.0000000000000000  0.0000000000000000  0.0018699899937576
  0.1249999521128992  0.1666699702868031  0.0018699899937576
  0.2499999943280624  0.0000000000000000  0.0018699899937576
  0.3749999464409617  0.1666699702868031  0.0018699899937576
  0.4999999886561249  0.0000000000000000  0.0018699899937576
  0.6250000308712881  0.1666699702868031  0.0018699899937576
  0.7499999829841874  0.0000000000000000  0.0018699899937576
  0.8749999350970866  0.1666699702868031  0.0018699899937576
  0.0000000000000000  0.3333300219343480  0.0018699899937576
  0.1249999521128992  0.4999999922211510  0.0018699899937576
  0.2499999943280624  0.3333300219343480  0.0018699899937576
  0.3749999464409617  0.4999999922211510  0.0018699899937576
  0.4999999886561249  0.3333300219343480  0.0018699899937576
  0.6250000308712881  0.4999999922211510  0.0018699899937576
  0.7499999829841874  0.3333300219343480  0.0018699899937576
  0.8749999350970866  0.4999999922211510  0.0018699899937576
  0.0000000000000000  0.6666699625079541  0.0018699899937576
  0.1249999521128992  0.8333300141554991  0.0018699899937576
  0.2499999943280624  0.6666699625079541  0.0018699899937576
  0.3749999464409617  0.8333300141554991  0.0018699899937576
  0.4999999886561249  0.6666699625079541  0.0018699899937576
  0.6250000308712881  0.8333300141554991  0.0018699899937576
  0.7499999829841874  0.6666699625079541  0.0018699899937576
  0.8749999350970866  0.8333300141554991  0.0018699899937576
  0.0000000000000000  0.2222199683821562  0.0864100026098289
  0.1249999521128992  0.0555599860957249  0.0864100026098289
  0.2499999943280624  0.2222199683821562  0.0864100026098289
  0.3749999464409617  0.0555599860957249  0.0864100026098289
  0.4999999886561249  0.2222199683821562  0.0864100026098289
  0.6250000308712881  0.0555599860957249  0.0864100026098289
  0.7499999829841874  0.2222199683821562  0.0864100026098289
  0.8749999350970866  0.0555599860957249  0.0864100026098289
  0.0000000000000000  0.5555599783168760  0.0864100026098289
  0.1249999521128992  0.3888900080300730  0.0864100026098289
  0.2499999943280624  0.5555599783168760  0.0864100026098289
  0.3749999464409617  0.3888900080300730  0.0864100026098289
  0.4999999886561249  0.5555599783168760  0.0864100026098289
  0.6250000308712881  0.3888900080300730  0.0864100026098289
  0.7499999829841874  0.5555599783168760  0.0864100026098289
  0.8749999350970866  0.3888900080300730  0.0864100026098289
  0.0000000000000000  0.8888900002512240  0.0864100026098289
  0.1249999521128992  0.7222199606033073  0.0864100026098289
  0.2499999943280624  0.8888900002512240  0.0864100026098289
  0.3749999464409617  0.7222199606033073  0.0864100026098289
  0.4999999886561249  0.8888900002512240  0.0864100026098289
  0.6250000308712881  0.7222199606033073  0.0864100026098289
  0.7499999829841874  0.8888900002512240  0.0864100026098289
  0.8749999350970866  0.7222199606033073  0.0864100026098289
  0.8803048374500374  0.2892703665260941  0.1709983980757084
  0.0036399566503094  0.4459421177526433  0.1700703411563144
  0.1319707344658980  0.6195904884080828  0.1700183147984324
  0.1350828010529486  0.9488028967270925  0.1719296489577159
  0.0062961250182129  0.1126405603569824  0.1727538026329165
  0.7591747008190124  0.7835888804242830  0.1717974277455113
  0.1241352291158940  0.2799043390868926  0.1704910577290803
  0.0045868097621337  0.7850290386561968  0.1705500669727048
  0.2653369900786724  0.7834406632985551  0.1713341612333127
  0.8805829358173821  0.9478907809775823  0.1717656881126587
  0.3881906964232628  0.9435375544148021  0.1711367958153407
  0.8853648558062016  0.6158940829805135  0.1712344101326799
  0.2583108367398596  0.1136728384165678  0.1701303732612160
  0.4997249248429305  0.1111119406946926  0.1683586278597582
  0.6270792785512850  0.9473308316268437  0.1736933954675525
  0.2547119660642003  0.4436630688954502  0.1709660167820373
  0.7568582431070049  0.1144815441463929  0.1692053332508018
  0.7588485657090536  0.4566119615380090  0.1719010183954766
  0.6280969150376354  0.2847822315359565  0.1704175482989017
  0.3815850719211496  0.2789311334602004  0.1718558890647892
  0.3815412588843457  0.6219431039791197  0.1737141162173004
  0.5114789802324271  0.7797602720967013  0.1752943536778947
  0.5035364252204827  0.4547214087801452  0.1749159832373340
  0.6311787580726393  0.6137872778278536  0.1744503682044448
  0.0089469660987660  0.0139039662475873  0.2584107598617562
  0.1283250413378163  0.5128128062450035  0.2569000653843657
  0.8827612004523792  0.8488699152752928  0.2622286891370313
  0.2574382571678197  0.3401590958086684  0.2535338940418086
  0.8822980883035851  0.1756500784336656  0.2547557915920102
  0.6322001423086007  0.8457592044554952  0.2630397873346646
  0.7638257058132799  0.3461440200495167  0.2600643695064815
  0.2515504143046002  0.6872939413093970  0.2554104106473328
  0.1312746508487672  0.8512295709993694  0.2588191724683500
  0.7607124616887508  0.6818631373251648  0.2612988141152104
  0.0094994345639539  0.6889352433376448  0.2587991385720582
  0.0112370266856347  0.3428882335520638  0.2576692021656499
  0.2667263697200793  0.0197669997895765  0.2558195403614466
  0.8909140616721033  0.5228457596030947  0.2594550584812234
  0.5134150669750044  0.0125198391093894  0.2602150514073869
  0.3881900281257603  0.8517575542127014  0.2661036554059323
  0.6343183565147216  0.1808295684309772  0.2540269311499794
  0.3973858373688557  0.1800741699700612  0.2610644774288066
  0.1388299137759722  0.1761483365533025  0.2641500208892489
  0.7545758527366581  0.0178924932814545  0.2558076801638392
  0.3758892583638406  0.5163622949428768  0.2609230588095118
  0.6444802451340157  0.5136077362888880  0.2613328402566925
  0.5087297345588910  0.3491808224687523  0.2675504390148661
  0.5129539968048099  0.6814768829492857  0.2649631515837794
  0.6869940561981256  0.7551599010922735  0.3970500742199357
  0.8091589682167654  0.6911472737735683  0.4170486061307933
  0.1221057783712902  0.9810209819215105  0.4005344372894300
  0.1358761101668149  0.0671661746467526  0.4382187943356958
  0.7307257712036086  0.7962606172306010  0.7702982746796234
  0.6010939962827888  0.8310379580641443  0.7525706588746824
  0.6588630244716214  0.5895216878382419  0.8750759966252805
  0.7548489443554566  0.6751802484207911  0.8828921842158264
  0.3392585969973136  -0.0473255759736479  0.8323751741527691
  0.4321476219565913  0.0000320199755029  0.7969201809069950
  0.0255494577345269  0.5139946848446653  0.9064016101928097
  0.1169645374733819  0.4269188250187003  0.8997510338492288
  0.0939788459283801  0.7152962325025528  0.8195974477416466
  0.0750681533178212  0.7777280937176578  0.7759555994658953
  0.5871389454933922  0.1166747737391778  0.3623368978319457
  0.4532513740389515  0.1114842865580986  0.3788760255669755
  0.6430973050924087  0.3648424324711175  0.8880385945298507
  0.7321905166314752  0.2876711907274838  0.8945873656386667
  0.7096847426590424  0.2364881992020487  0.7984281165511168
  0.7431654469136315  0.2041434552107970  0.7432534954256395
  -0.0434827836780678  0.1408514109096037  0.8849900967209661
  0.0225920504132380  0.1908040871524241  0.9269946690534913
  0.4924385119163835  0.5199199697573020  0.6839199090433350
  0.3524541521784065  0.5335264758886901  0.6712435799241204
  0.5389724352197811  0.3758102750588360  0.5427932364980339
  0.5323863444830489  0.3601922410027454  0.4808055511467006
  0.4860425561485321  0.8603429292950193  0.3734028623541640
  0.5757894952215349  0.8696954694656632  0.4199339684741471
  0.4649391381923976  0.7747503759874241  0.5899579899607764
  0.4922916287823551  0.8710956592783146  0.6250327013450577
  0.2979706237663645  1.1899806388912864  0.3526536230218878
  0.2348418176840862  1.0993868798046460  0.3775559715295924
  0.7027948244390019  0.5842913592311630  0.4819026918791491
  0.6005249918987077  0.5101073383215251  0.5001653364776012
  0.0660998000501032  0.2777398798043285  0.6973042373770075
  0.1576616878858212  0.3556341599697071  0.7068377263318950
  0.9269929038863978  0.4748098225257265  0.7769260144482018
  1.0307242107008734  0.4050169177484484  0.7536585692254619
  0.0031146094261154  0.1210047620122098  0.3723277328395826
  -0.0466308941350940  0.1732099333334960  0.3264277198759824
  0.6029464554649802  0.9889595465292651  0.8742784388584157
  0.6135082227795313  0.9234829699155022  0.8299732222625382
  0.4406335102444908  0.3878432101646472  0.9138884333173498
  0.4243354714468016  0.3217911939352192  0.8654773508323315
  0.5891850672472135  0.1227691581407668  0.9158160095202982
  0.5274656621691352  0.1631329360566321  0.8690055878698558
  0.1946827269882317  0.9874377493856487  0.5925256398211961
  0.2684281906843070  0.9191866601254349  0.5584017733762817
  0.1527445353821621  0.5678510797951768  0.4085727716640366
  0.0517220895955650  0.4854007998116569  0.4031891063462303
  0.1293272334942021  0.6870420925274815  0.4467558670693727
  0.2656323089529021  0.6752694239654490  0.4344785413488232
  -0.1190000372695220  0.1714438817493662  0.6909675942661729
  0.8181104024147227  0.2346712175069705  0.6551041363545733
  0.0614836222569198  0.2893591889394501  0.8636226110922993
  0.0651268736767179  0.3768599879637869  0.8333868108326583
  0.6909512942846748  0.5558475699904551  0.6436605047959812
  0.5623154977797862  0.5847312338332965  0.6166880693193301
  0.5018683810541552  0.0411807208120220  0.4909353134277866
  0.4987517597796375  1.1427542340369019  0.5108946783984114
  0.2739344431520752  0.6606715576710875  0.6450514614357670
  0.2367841310337213  0.5848696328309559  0.6075376438234561
  0.4748749772785944  0.0937725500035941  0.6981255411022221
  0.5417975310605381  0.0887056154344663  0.6466783491365699
  -0.0660394543831387  0.1237203379793393  0.5238400644350146
  0.0170587084294830  0.2141580813373060  0.5290955316146010
  0.8252090302574551  0.0646712175368651  0.3521648433848587
  0.7948372501292950  0.9582855326903481  0.3479797068662889
  0.8160057416794840  0.5958084134727150  0.7807358903842434
  0.7399603062736401  0.5033544957930810  0.7827125760420645
  0.8171940450899254  0.5587461748436415  0.6943621260451320
  -0.1207653103204302  0.5365219303030478  0.6431035905701560
  0.2469989627432230  0.4198475492518152  0.4685137443876914
  0.3409933761983933  0.4335527372222345  0.5089536580126978
  0.7228681246368254  0.8952031522549946  0.7108606446424738
  0.7871079746007308  0.8584116628812790  0.6613814569147730
  0.5335675839480725  0.5601066054093408  0.8119072048709570
  0.5614526135807750  0.4541711918132662  0.8312028441562881
  0.6870217307391023  -0.0205803607529721  0.4695556445431922
  0.6099444862112878  0.0208995430151438  0.4272639505570178
  1.0283517406100853  0.9014613575775088  0.5642784804446735
  0.9409177029758004  0.8289026777119939  0.5864284438780106
  0.6682594815454577  0.2704557790457831  0.4422453514746151
  0.5517330203337050  0.2220008307939221  0.4255555101814424
  0.2801498289731291  0.6317420154675470  0.9095468094762659
  0.3304842989578820  0.7273880915113684  0.8908749780851374
  0.8413803855242076  0.7955080506244265  0.9247394592177789
  0.7322336382685560  0.8508061411127036  0.8993772834098503
  0.1734903811159275  0.5673541137690463  0.8433854509894740
  0.1079304362051733  0.5365038038094647  0.7923741735559752
  -0.1535678359987042  -0.0440582559853602  0.5322864828683513
  0.7579627967153189  0.0244830602129698  0.5586000007831753
  0.3370673784589299  0.3073057980392521  0.6878257857516169
  0.3524962133388704  0.4054482422823940  0.7127327092693856
  0.3595105750304309  0.6254346568785422  0.8113054769799808
  0.3965165633965968  0.5803434769012893  0.7588348146627829
  0.4508496572217918  0.1575921960736109  0.7781682508796923
  0.5883805427981960  0.1247450617882463  0.7706406448665128
  0.4615280196681753  0.8678895468383383  0.9050322595074987
  0.3213952996146022  0.8979763075044505  0.9052917027454629
  0.1788788555623106  0.1841651631506422  0.8849561743546177
  0.2930895750687070  0.1932838748272164  0.9164312075975327
  0.9310685099929673  0.3900847785579813  0.6071851403761551
  1.0209141282996641  0.4014143326810682  0.6511839190744610
  0.0721653453195266  0.1085981874443499  0.6987506838361758
  0.0863944155647958  0.1486794344399577  0.6473901709540539
  0.0739122116131824  0.4896728176819784  0.5850736022983621
  0.1604783417931750  0.4863906455093935  0.5388975308238940
  0.3534585314771493  0.3075124453278325  0.7657760426453748
  0.3029438439806046  0.2493676319884333  0.8136903440976749
  0.8493443306784788  0.2447692276014415  0.5713867034597429
  0.7441379901001085  0.3052907685921275  0.5950681803386355
  0.3119416999462161  0.2583400728606828  0.6062396536826580
  0.4019537402971616  0.1908563956837210  0.6431990234190946
  0.0760831286338035  0.6195305780929363  0.5301227317955167
  0.0274802782700785  0.7277365407856321  0.5206117521701816
  0.5584183527945450  0.6226789594329806  0.5429246784301879
  0.4247521213359837  0.6258979082984401  0.5724863389377476
  0.4099157887086727  0.8318464828377597  0.7705331176205973
  0.4411690516298267  0.7221901779468238  0.7646504877416942
  -0.0387400510650318  0.9589882001830403  0.8658948224990739
  0.0447531888391356  0.8783460370726131  0.8419108249241636
  0.3303681662849300  0.8018064240776580  0.6455398997657558
  0.3231977564192282  0.7641539229328844  0.6987887214493376
  -0.1687325514450731  0.7447458691609040  0.8390412774887411
  0.9108966503794407  0.7519563168995719  0.7924677535403548
  0.2599559382117488  0.3108573674040696  0.5344115786741617
  0.2306051552852747  0.2011073723021382  0.5309095315949214
  0.1411050683939040  0.8461755699196674  0.3396070494603598
  0.1524221298842283  0.7890381589214861  0.3899146119638457
  0.6007268203574345  0.4207048198369951  0.6171461588077629
  0.5185365857667692  0.3288513688442800  0.6142583884543842
  0.4553767978047594  0.6425155113706291  0.4634029354715228
  0.4429594732227602  0.7442717649878856  0.4349041837026513
  0.8376794472291132  0.8123719661299250  0.3605309882592708
  0.9745677509216416  0.8492072159782221  0.3570053266721733
  0.7013080734883657  -0.0023756919996901  0.6397751451645664
  0.7268898096291522  0.1064643065844545  0.6380464188737719
  0.2738605712701634  0.0461702478164437  0.8861985761739957
  0.1666698462163835  0.9800569786071747  0.8717247798325491
  -0.1828966314769228  0.0626023195021467  0.9038814965834037
  0.7855965133564714  0.0798177929291108  0.8496454838916753
  -0.1014414216386944  0.7135978040714983  0.6443806011465899
  -0.0455476784097936  0.8003450910352560  0.6731895181644584
  0.0817368851933732  0.8933363493944537  0.7311067895865229
  0.1388576310975040  0.8161927888597698  0.6936058554697223
  0.8545381378499163  0.5506526767001175  0.4328030559745796
  0.9100638521102781  0.6300539760966959  0.4715179643384723
  -0.1240794217738254  0.4484296391361234  0.3671892362117044
  0.8727879586819833  0.3887207504810148  0.4159913078509579
  0.0967452164652480  -0.0133496228701407  0.7909527029927573
  0.2301406343605522  -0.0112257432516536  0.7674173420245742
  0.8552275494935083  0.2241912581006084  0.4036509869483849
  0.8568333820921163  0.2478212322358346  0.4614738839995124
  0.3049673299463194  0.0817180920817790  0.4972280801523559
  0.1878134379338267  0.0438589517914198  0.5241229549083671
  0.3128000766262955  0.0355593346413019  0.6548415843221523
  0.2054582709614459  0.9702185659228826  0.6706383866907938
  0.8422388477203457  0.4310448063865391  0.9104281614801967
  0.8135122563100970  0.5443549264842370  0.9021224098039664
  0.5204280507506616  0.3395687272606337  0.3643684114963703
  0.6976833924064803  0.4290710903816494  0.3585449976425990
  0.6926854242899320  0.6014459667341090  0.3493506174066511
  0.3124019087748073  0.5928258545587011  0.3417322498623097
  0.4972404751718564  0.6854426773428595  0.3574110768315797
  0.2378937384239633  0.4464819385498048  0.3812861396431503
  0.5148897848313512  0.3995332676010548  0.3439692256255825
  0.6212073280965891  0.4618120449817621  0.3449522341129537
  0.3960238137659327  0.4525811989059004  0.3507263072382489
  0.6116230413473278  0.5611680145817882  0.3404127284897608
  0.3909433224724486  0.5509186730683929  0.3361988656535519
  0.4988611901326082  0.6144383084059766  0.3358949094848628
  0.7764357830962264  0.7454167124845172  0.3962022564779822
  0.1073124559966413  0.0508870884968771  0.4040756698375113
  0.6767212694239387  0.8540906585787537  0.7673030012067042
  0.7326271198382205  0.6128468530542093  0.8922165746878832
  0.3747601343726988  -0.0518975880129685  0.7974008623517509
  0.1065249383860000  0.4920658735706148  0.9187860131958480
  0.0551730376003450  0.7722599310468741  0.8135029045727074
  0.5378616691955157  0.1110939912939051  0.3915889821584412
  0.7260475818336909  0.3501112135469231  0.8831149378799141
  0.7215369200537913  0.1833023248933773  0.7782995559389831
  0.0137926563433806  0.1966077632636401  0.8895986425210167
  0.4058474142909060  0.5042287277507922  0.6990749877119664
  0.5086798937797362  0.4043370798906309  0.5092043105250652
  0.5329121832060830  0.8241226069617265  0.3975129381668654
  0.4305371749146947  0.8320441861078349  0.6060451683418530
  0.3120380210775173  1.1358857377956226  0.3740401392926804
  0.6211381881152771  0.5775742625352939  0.4963261338895488
  0.0703285940885039  0.3478160246360182  0.7043519597279669
  1.0076870421015816  0.4393809161872792  0.7840162347987811
  -0.0736236035015161  0.1512236544970649  0.3605435464163038
  0.6201950118065410  0.9279316910492895  0.8669504932692479
  0.4855181588905282  0.3584087792380620  0.8861508738708263
  0.5978145742100545  0.1305325736109774  0.8789768088286422
  0.1859214496359849  0.9488899110210645  0.5627638676834938
  0.1352973838745883  0.4988688488901332  0.4066830514416432
  0.1822797992252959  0.6813030855766141  0.4185497900470886
  -0.2027499776138718  0.1908028674164314  0.6835214428101086
  0.1177294905397769  0.3432845725206017  0.8582668237356387
  0.6021521887622723  0.5382699957666165  0.6414277957886794
  0.4431089163242938  1.0865204246976528  0.5089335729266941
  0.3049643442816577  0.6062128919580261  0.6255352890831388
  0.4600869458350323  0.0929278285362924  0.6611863102873788
  0.9345528955606235  0.1908697870119861  0.5238843028475213
  0.7536373566368529  0.0230352064903417  0.3508410104070309
  0.8125615334321760  0.5287083592358288  0.7672489154751804
  -0.1777761411934917  0.5812708696719181  0.6581453848613319
  0.2547029065068079  0.4152720903466301  0.5047568712202410
  0.7488724317731154  0.9131445494081192  0.6745110706568540
  0.5977846915959647  0.5167522321095125  0.8294862050973291
  0.6115758734518354  -0.0307756360342800  0.4496719909067272
  0.9640878476679442  0.8583483050968265  0.5547715637979369
  0.5786083883683748  0.2743143497722383  0.4474022522537491
  0.3187528502444503  0.6634500887883408  0.8805364708425885
  0.7908501354474871  0.7963368813079869  0.8919945313729450
  0.1415696020410663  0.5898100087398899  0.8106474064983562
  0.7985967695826763  0.0136571858070993  0.5256516780761316
  0.3072466919615518  0.3441522761062504  0.7156840026406153
  0.4224853091875657  0.6167037782645393  0.7869588306397685
  0.5036354818475096  0.1104771627572411  0.7613808102562682
  0.3813109988273992  0.8437242095505164  0.9101909376932945
  0.2692492083167139  0.1673847175099088  0.8844610493316578
  0.9861612353547415  0.4339495954141973  0.6232581299184695
  0.0562857546629947  0.1671896926123027  0.6808198082617981
  0.1201979606644279  0.5305201146611598  0.5622041582463789
  0.3788295173051067  0.2719358542934383  0.7996512400122584
  0.8301635477825668  0.2947852197207296  0.5967419623161586
  0.3742470435612555  0.2556921857732199  0.6330101190966954
  0.0385212180835570  0.6630874469886515  0.5042803626979564
  0.5070068967099755  0.6499394293119091  0.5725183812530492
  0.4439299063763977  0.7853598569318655  0.7472177898465955
  0.0358192135946950  0.9450123024584174  0.8461129411563819
  0.2708020183729379  0.7713657336937336  0.6683735486028040
  0.8297722736552994  0.7269210145277976  0.8016215209179655
  0.2359020493399886  0.2547284634685000  0.5535999834170739
  0.1171217353884531  0.8451598738620020  0.3733323289804626
  0.5906304208568058  0.3577844268725041  0.5990958646625468
  0.4039576597273020  0.6886993719784378  0.4490268517106146
  0.8877837212646807  0.8651841490458820  0.3449287420431850
  0.6815449659762109  0.0577254591950074  0.6203732609398949
  0.2492288946383893  -0.0169793678977012  0.8903084144661354
  0.8489574913035548  0.0592331172143197  0.8717110686400368
  -0.0889293726366251  0.7800539094652887  0.6412972919526850
  0.0696184010515012  0.8297749328918370  0.7165536602677200
  0.8348628795316057  0.6014224172487881  0.4566444606754474
  -0.1068709066351224  0.4499419880822353  0.4020108391865638
  0.1437669889714351  -0.0077661772840994  0.7579233210093066
  0.8275857585091594  0.2688467933245243  0.4306974054822678
  0.2122098187922302  0.0956125916263167  0.4999514626592903
  0.2233850248458486  0.0253809785262876  0.6519300891401274
  0.8736676195531372  0.4939819298620305  0.9185648614932135
  0.3114185639487143  0.4042197606024365  0.3755596807345655
