pzc_combine
1.000
11.0985002518  0.0000000000000000  0.0000000000000000
0.0000000000000000  14.4173002243  0.0000000000000000
0.0000000000000000  0.0000000000000000  26.7964000702
Pt  H  C  O  
96  166  6  81  
Direct
  0.0000000000000000  0.0000000000000000  0.0018699899937576
  0.1249999521128992  0.1666699702868031  0.0018699899937576
  0.2499999943280624  0.0000000000000000  0.0018699899937576
  0.3749999464409617  0.1666699702868031  0.0018699899937576
  0.4999999886561249  0.0000000000000000  0.0018699899937576
  0.6250000308712881  0.1666699702868031  0.0018699899937576
  0.7499999829841874  0.0000000000000000  0.0018699899937576
  0.8749999350970866  0.1666699702868031  0.0018699899937576
  0.0000000000000000  0.3333300219343480  0.0018699899937576
  0.1249999521128992  0.4999999922211510  0.0018699899937576
  0.2499999943280624  0.3333300219343480  0.0018699899937576
  0.3749999464409617  0.4999999922211510  0.0018699899937576
  0.4999999886561249  0.3333300219343480  0.0018699899937576
  0.6250000308712881  0.4999999922211510  0.0018699899937576
  0.7499999829841874  0.3333300219343480  0.0018699899937576
  0.8749999350970866  0.4999999922211510  0.0018699899937576
  0.0000000000000000  0.6666699625079541  0.0018699899937576
  0.1249999521128992  0.8333300141554991  0.0018699899937576
  0.2499999943280624  0.6666699625079541  0.0018699899937576
  0.3749999464409617  0.8333300141554991  0.0018699899937576
  0.4999999886561249  0.6666699625079541  0.0018699899937576
  0.6250000308712881  0.8333300141554991  0.0018699899937576
  0.7499999829841874  0.6666699625079541  0.0018699899937576
  0.8749999350970866  0.8333300141554991  0.0018699899937576
  0.0000000000000000  0.2222199683821562  0.0864100026098289
  0.1249999521128992  0.0555599860957249  0.0864100026098289
  0.2499999943280624  0.2222199683821562  0.0864100026098289
  0.3749999464409617  0.0555599860957249  0.0864100026098289
  0.4999999886561249  0.2222199683821562  0.0864100026098289
  0.6250000308712881  0.0555599860957249  0.0864100026098289
  0.7499999829841874  0.2222199683821562  0.0864100026098289
  0.8749999350970866  0.0555599860957249  0.0864100026098289
  0.0000000000000000  0.5555599783168760  0.0864100026098289
  0.1249999521128992  0.3888900080300730  0.0864100026098289
  0.2499999943280624  0.5555599783168760  0.0864100026098289
  0.3749999464409617  0.3888900080300730  0.0864100026098289
  0.4999999886561249  0.5555599783168760  0.0864100026098289
  0.6250000308712881  0.3888900080300730  0.0864100026098289
  0.7499999829841874  0.5555599783168760  0.0864100026098289
  0.8749999350970866  0.3888900080300730  0.0864100026098289
  0.0000000000000000  0.8888900002512240  0.0864100026098289
  0.1249999521128992  0.7222199606033073  0.0864100026098289
  0.2499999943280624  0.8888900002512240  0.0864100026098289
  0.3749999464409617  0.7222199606033073  0.0864100026098289
  0.4999999886561249  0.8888900002512240  0.0864100026098289
  0.6250000308712881  0.7222199606033073  0.0864100026098289
  0.7499999829841874  0.8888900002512240  0.0864100026098289
  0.8749999350970866  0.7222199606033073  0.0864100026098289
  0.8713528836593543  0.2805165939725280  0.1711613812222713
  -0.0112084777562468  0.4531925716014029  0.1741765380040904
  0.1212331071382172  0.6183833149130991  0.1695857485593244
  0.1272588524626049  0.9511716410529156  0.1716270653241398
  -0.0042180536322831  0.1196554046015060  0.1700838754705898
  0.7517827695094922  0.7817044109482151  0.1751911002262089
  0.1125437730919924  0.2819964231061435  0.1690495285125137
  -0.0021171537114836  0.7782853656323023  0.1742990089028455
  0.2555012489043371  0.7789644752955317  0.1678339729410687
  0.8733155267467811  0.9474663560086352  0.1710483373398071
  0.3740242691553533  0.9486782922261074  0.1699841107823109
  0.8725503949174942  0.6171235188890565  0.1724920237864437
  0.2464339512860234  0.1213544289416327  0.1708279605099147
  0.4985923791822713  0.1173183818041857  0.1726927293657719
  0.6213983461577597  0.9457850155965696  0.1714454782270949
  0.2370096949786871  0.4456533052818463  0.1715103859421404
  0.7471333450170584  0.1175825091540194  0.1686126765036867
  0.7460221401587265  0.4482723839590287  0.1720448582280624
  0.6286950071806637  0.2862162075493820  0.1733463397035082
  0.3774446005369599  0.2842766464966914  0.1736382918418367
  0.3745437040221557  0.6136850125509250  0.1725599703835698
  0.4975627534994547  0.7825555397663080  0.1712553874952558
  0.4944974201545749  0.4510013948270749  0.1734596595820010
  0.6262687429747741  0.6139173470343503  0.1762971688482012
  -0.0054278617861210  0.0204671770726289  0.2543368792839916
  0.1153114452011153  0.5122142870239459  0.2559508908372859
  0.8753735007326172  0.8562651382186490  0.2636016393319687
  0.2399142626201368  0.3461653255640874  0.2542840148583116
  0.8692328943845705  0.1822415443268311  0.2566130643327373
  0.6096190667836120  0.8455753271165511  0.2545480129991614
  0.7479813044788312  0.3537524017710207  0.2602455062072057
  0.2420443714874287  0.6894932087732567  0.2555072033916270
  0.1224884198907434  0.8547762348410376  0.2583446775150469
  0.7442972255877783  0.6894144278515634  0.2628823111815640
  0.0030177524206091  0.6886381224666526  0.2641342986616774
  -0.0059132327892101  0.3475658862020609  0.2579755174273454
  0.2471403184547522  0.0212995346925232  0.2556697302157001
  0.8687731121631689  0.5189479181400111  0.2611381461938209
  0.4953006184694602  0.0203361658381665  0.2565178123476455
  0.3673232493136915  0.8536437212742826  0.2592962356434970
  0.6234873238911467  0.1825363524416566  0.2570235501133341
  0.3735810444773882  0.1852221367422940  0.2593472985846539
  0.1247995341600646  0.1827317252962257  0.2575670513732737
  0.7404909378154148  0.0162062025875128  0.2600310741310705
  0.3644601258214119  0.5173575958228441  0.2587305394395186
  0.6246382508461583  0.5216945230510511  0.2613111693905135
  0.4973126813061826  0.3495200793562350  0.2639449094569072
  0.4870659777138160  0.6882768734450624  0.2660000786384288
  0.6768463764535821  0.7679511698132488  0.3918643893467451
  0.7474367854300507  0.6707423025429521  0.4007003089769834
  0.1752020551411562  0.9911468332340844  0.4309026129237747
  0.1820245622891575  0.0770886661517075  0.4619548607899109
  0.7142839306251570  0.8839699514767356  0.7799294187856933
  0.5775289920329953  0.8940670674787066  0.7659250392378103
  0.6251587578488106  0.6013479003501118  0.8624513834043347
  0.5970745553143783  0.6348306076940547  0.9220227952700363
  0.3731556908536646  0.0753741690880799  0.7977275360197462
  0.3364862475805526  -0.0142849557265150  0.8263256773294897
  0.0297220815620111  0.5078961224070319  0.9128783604781217
  0.1553429981785496  0.4519480978982224  0.9044937945210750
  0.1085835458718442  0.7347101203557199  0.7867532021939486
  0.1214151341827877  0.8198809847960919  0.7499170076784877
  0.6072267307744568  0.0918469733860517  0.3599327107272888
  0.4718732868209494  0.1295804194984576  0.3734040195543818
  0.6897434688401670  0.3287878040515835  0.8767353951856658
  0.7912934664100828  0.2619930083743120  0.8975767494958320
  0.7060186623439654  0.3112087741183073  0.7744797844610291
  0.7056045896138003  0.2254882760727029  0.7349380558622556
  0.0160198404618826  0.1603328406939818  0.8763085923364010
  0.0357060554407546  0.2297386201486844  0.9198794017190542
  0.4506154518299796  0.5834680437202610  0.6577482236653459
  0.3104342556771324  0.6147823767560023  0.6589661139608523
  0.5243740207201533  0.3934801767558694  0.4999242572772953
  0.5168923552413843  0.3507378732307364  0.4524435376893338
  0.5423316422706574  0.8598670090885139  0.3612613654945983
  0.5700094094311511  0.9170890157863771  0.4072639105256703
  0.4816207535457849  0.8293527984765641  0.5902941903263628
  0.5585196844586875  0.8959231330238284  0.6312047986068808
  0.3303305233430440  1.2455590209138405  0.3753850613197284
  0.2609793524066675  1.1505022293315914  0.3882184307984306
  0.6466274143514184  0.5751714751575565  0.4499762672714121
  0.5413846710167446  0.5051331127186535  0.4527643371093111
  0.0413131842048331  0.3385415592354413  0.7100141130322360
  0.1616512293099266  0.4067795431501979  0.7157049126172738
  0.9373731849051161  0.5246611451186078  0.7876105380278597
  1.0375949990209108  0.4585295215853057  0.7585271128417024
  0.0420007119812786  0.0916743889589198  0.3860204211424432
  -0.0032596875775295  0.1086378088568969  0.3299458642107820
  0.6528112778593611  0.9722969921423418  0.9285752435929460
  0.6404092133031454  1.0026912196594617  0.8752474905120697
  0.4826830959283143  0.3792664763603816  0.8896867733107428
  0.4776138831226583  0.3551162390910522  0.8358241844846749
  0.6436556990879393  0.1540261336277901  0.9031747386177670
  0.6678479888395618  0.1553789088975405  0.8419919013595919
  0.2434697315848377  0.8951830207951870  0.5190405541402335
  0.2142580882506477  0.8281460757594581  0.4703800841411279
  0.1286072503055993  0.5698984819121313  0.3988936912158970
  0.0202532180475055  0.4857729676458923  0.3866884815331339
  0.1261553313811855  0.6720522890457070  0.4407318267663053
  0.2607810573262450  0.6772961362795029  0.4214276535771886
  -0.1082625057205479  0.2141982790019855  0.6905733645572446
  0.8068086928094400  0.2779392540391214  0.6563860293928178
  0.0933210470155210  0.3217396423625643  0.8606683155155574
  0.0724792034644084  0.4214098105940626  0.8308774683977103
  0.6536621826199813  0.6135746190809106  0.6369434392823875
  0.5572220657919074  0.6536675956512217  0.5994073017652225
  0.4167931526558980  -0.0420714648972672  0.5676009994497174
  0.4687937165434736  0.9699662011913868  0.5102818125934161
  0.2158106093759417  0.7409025292749379  0.6475512283270105
  0.1782990760827402  0.6595773289490269  0.6047943472945410
  0.4602390622256885  0.1482753773620465  0.6983898647942646
  0.5421090102894041  0.1308401049331404  0.6493466393252775
  -0.1258606061997837  0.1749714627117352  0.5407570752279729
  0.0043266744074013  0.2082777478850618  0.5366698234212722
  0.8272446239581749  0.0599009098211334  0.3503865926319528
  0.7871852940024997  0.9539930533331039  0.3535485669037964
  0.8036644964668450  0.6885333169915294  0.7722677299818933
  0.7276946379660755  0.6047836779249250  0.7732973266041158
  0.8028268032209949  0.6317340426225475  0.6881449558706477
  -0.1140556148561334  0.5975404024797769  0.6435617861586617
  0.1708964590591766  0.4755283305847139  0.4609055275165482
  0.2997949801515181  0.4471805499502267  0.4855265369421279
  0.6673546149623920  0.9279241449762865  0.6959090596105142
  0.7622843499893499  0.8937636999388792  0.6525450112026743
  0.5043140876346994  0.5726449626875860  0.8039663062262680
  0.5618835226307815  0.4836573318940204  0.8292798942799985
  0.6617463823915177  0.0165193206838116  0.4879804252154683
  0.5822939631101842  0.0529950204624456  0.4422417526479165
  1.0392253795578725  0.8709583972133501  0.5064561871350919
  0.9520001974578861  0.8404341706276914  0.5454873642469431
  0.7203168743545714  0.2650180954656171  0.4307098173845804
  0.6109869116325175  0.2019782817376535  0.4226329175796439
  0.2904322036553743  0.7817781685993326  0.8774321129630944
  0.2214732358096174  0.7319208512363724  0.9191851948684600
  0.7520254787169423  0.7443974035312897  0.9037197187703898
  0.7433638001190246  0.8519262364737465  0.9007482485470986
  0.1767405752486122  0.6523711589460682  0.8330831208415147
  0.1275999180853575  0.5801614493192059  0.7982333808445916
  -0.1448168178974749  0.0221834704989317  0.5245960677879624
  0.7474327848444767  0.0604038347229661  0.5596197425331273
  0.3273326582130591  0.3711269351998105  0.6796422880420173
  0.3234379658835266  0.4840399777926403  0.6899788281546583
  0.3348707479731086  0.6358616216612153  0.7866262070979251
  0.3988636865942355  0.6108150142810508  0.7353701231985273
  0.3771919188379578  0.2253919378902144  0.7776862649164225
  0.5120928692034973  0.1982454733988708  0.7736972468834042
  0.4677668960685043  0.8755980152527426  0.8931572775037080
  0.3455168890479657  0.9198192227660206  0.8883197474601049
  0.2341090302519571  0.1957208448877262  0.8828721838016440
  0.3604062277109260  0.2088570954931473  0.9064870731913469
  0.9366756718696280  0.4425787525424029  0.6195292776346466
  1.0078956007038686  0.4523166082099551  0.6650876098733729
  0.0555382997446012  0.1614251095276056  0.7286540142201373
  0.0581621339239334  0.1813249433617123  0.6690079138405026
  0.0958309039482613  0.5389889413901896  0.5924534393616220
  0.1716508421118456  0.5335671934010445  0.5456233379967922
  0.3452448935232090  0.3994029803301528  0.7674148124049306
  0.2732523881601161  0.3665879330508713  0.8130302621854157
  0.8409473396809893  0.3102186408077767  0.5730342192448612
  0.7202419704953886  0.3597405109632319  0.5985402087214132
  0.3198373072635911  0.3073293239903472  0.5950233002802378
  0.4115741410700212  0.2509272725903611  0.6293914888573360
  0.0340621655920302  0.6442265556657616  0.5144608062084777
  -0.0291435570538048  0.7355240019644432  0.4853745195558623
  0.4263223541156040  0.7263103319406958  0.5244741811579881
  0.3678891994833084  0.7141955041031225  0.5790264197710269
  0.4172604796083985  0.8473623156927187  0.7978868610144774
  0.4409257691196911  0.7553130121925251  0.7693802763725539
  0.0706399339742185  0.8636877712244895  0.9012788001347281
  0.0963443305438120  0.8748551976840310  0.8434959541463251
  0.3554929516499414  0.8521686201132376  0.6580938902801051
  0.3314748965747282  0.8395780223746921  0.7133869487961157
  -0.1560408065242082  0.7916817278703909  0.8386741417849067
  0.9344277233510023  0.8100084811174837  0.7929703541943500
  0.1876407448801244  0.3416729993870382  0.5173985776700832
  0.2160392551877565  0.2367500161678658  0.5277053434996897
  0.1653112621862976  0.8837020950237299  0.3478476985446214
  0.1278905761046225  0.7975849563303598  0.3815862255979403
  0.5696095542345645  0.4948149710634448  0.5861449986920862
  0.4968449776991877  0.3991554868366077  0.5904407886227648
  0.4667646596809171  0.6604174337544735  0.4503150760843950
  0.4370962704184492  0.7730714803049161  0.4383238568102307
  0.8220235572117375  0.7962270867919974  0.3576900434569628
  0.9627814376421709  0.8574012271635399  0.3540727381530390
  0.6742041390039553  0.0277999398059604  0.6272332295706972
  0.7147281806308460  0.1386954092229904  0.6301396560158899
  0.2615053010004023  0.0660503966058066  0.9065626673045372
  0.1767785288811250  0.9671055732403584  0.8968817589280239
  -0.0421474470232259  0.0003445030638697  0.8584691051572401
  0.8471206858489895  0.0703520751194766  0.8562718624550206
  -0.1258824404741903  0.7618190032616369  0.6414284115393011
  -0.0461548883613280  0.8464507831661331  0.6592412197691208
  0.0720739937966183  0.9755351723892449  0.7150007569974678
  0.1583374660837614  0.9071620548940197  0.6853935958593457
  0.8237241499920042  0.5329858383089259  0.4145873535473409
  0.8634445199517655  0.5935343853405449  0.4600969929468582
  -0.0989511034810210  0.4279955829524661  0.3444502349091517
  0.9001935932000948  0.3731031805340083  0.3937221522204739
  0.0282688087022493  0.0663697000695884  0.7909476391819601
  0.1629946929276872  0.0496975188317401  0.7775405887065668
  0.9191326127370733  0.2191412797227366  0.3956507264418100
  0.9068084818097603  0.2526139552300840  0.4517507721666752
  0.2954527113398213  0.0757171777944994  0.5299370118037655
  0.1797688014176885  0.0908170351265312  0.5591222897273371
  0.2237258400203481  0.0998812265609123  0.6436004015807814
  0.1139137360018490  1.0332186564231205  0.6391486637731846
  0.8228089516706496  0.4331180870795234  0.9018118799612188
  0.7973218555961937  0.5392445094190630  0.9055543153531850
  0.5132907336354816  0.3382142808596989  0.3644955747866284
  0.6905241628621900  0.4307626401808896  0.3456159371422192
  0.6854094424754608  0.5908944574200699  0.3517652730107805
  0.2876559451068372  0.5895033547456457  0.3489564543036847
  0.4789610589266662  0.6704800250817650  0.3627497105594397
  0.2051457633233587  0.4510213573856345  0.3717476238787045
  0.4867315603586964  0.4055098454248813  0.3403043962998997
  0.5992502462322645  0.4619004752898062  0.3388501214384291
  0.3696801393264442  0.4546609331303055  0.3486539602306463
  0.5944010184556312  0.5595361115878875  0.3397800796542610
  0.3710685424665442  0.5526609878713865  0.3381009317507320
  0.4842563906351525  0.6123079318845644  0.3355451463720772
  0.7477151386156082  0.7316002702241099  0.3818003812526165
  0.1649079930689883  0.0583915992386067  0.4264170197700260
  0.6553337909795874  0.9268139617137486  0.7617062880882588
  0.6602349093979231  0.6249249702599883  0.8957146072427951
  0.3147844921779758  0.0194276598074796  0.7968990241583828
  0.1221037357439545  0.5136810947667962  0.9183205415329633
  0.1017576272268711  0.8017520640388293  0.7839224446257200
  0.5563751634369268  0.1193191744526859  0.3852890270951587
  0.7755434891398070  0.3259437914790431  0.8850928458922274
  0.6655745945765928  0.2503142444809024  0.7681945376458308
  0.0693646254028911  0.2129667072636047  0.8862845960122562
  0.3713105298917879  0.5737605103039762  0.6755311007627037
  0.4665574528828970  0.3951584945840033  0.4734566284039402
  0.5423184176460082  0.8541986744815768  0.3974061898949891
  0.4781634878585785  0.8839322387086347  0.6146563674505203
  0.3339389365782922  1.1778053613449300  0.3734664790487772
  0.5617664162046416  0.5707340712535875  0.4481561788613185
  0.0650158831129432  0.4013950539676007  0.7148906322421921
  1.0210191150792798  0.4988621934623827  0.7885000134774558
  -0.0306545889517660  0.1028515991156726  0.3666045045179339
  0.6308605639274956  0.9425333255942357  0.8949480489795139
  0.5395262594086847  0.3680244338990046  0.8605139788438715
  0.6883018151178629  0.1264123841943847  0.8738517631642909
  0.1850013435073804  0.8811546124834068  0.4927244175229040
  0.1099377953703350  0.5033980919511842  0.3926457551624945
  0.1769949601957624  0.6764146898642732  0.4105201807586647
  -0.1898477426135368  0.2164269820670603  0.6758747946945705
  0.1305067337602743  0.3793707835938167  0.8474570605084457
  0.5792338322339884  0.5980179773442023  0.6184026959064699
  0.3949450719514196  0.9763575787285410  0.5332085342123852
  0.2383975424941657  0.7011701891080526  0.6203405613460052
  0.4575937568840737  0.1475702226977312  0.6610791950482990
  0.9230858133591919  0.2267363338588391  0.5267010217538770
  0.7525054015064323  0.0171665017617414  0.3462387481002687
  0.8043099308532466  0.6249819588561345  0.7564990457073998
  -0.1846909622106425  0.6420573422476149  0.6514672821075591
  0.2109670825677784  0.4576451427070391  0.4918101033562318
  0.6863228314532513  0.9323015863986152  0.6586072997255514
  0.5826589879250770  0.5429582818984454  0.8164557922476453
  0.6017575973579706  -0.0020530628508457  0.4629532386216313
  0.9550646567837743  0.8478226444433687  0.5102860654855845
  0.6373284105978921  0.2567283267543740  0.4424446400874888
  0.2164604730905305  0.7437572458973074  0.8814451043581434
  0.8013967662844793  0.7986667894514951  0.9002100684161026
  0.1874073386413328  0.6280940821942040  0.7991712502462337
  0.7842923220989496  0.0619878232121223  0.5257850602315941
  0.3007415271589209  0.4200546697982103  0.7025926791165229
  0.4153373955685942  0.6309307138286808  0.7700972618612639
  0.4316653637074074  0.1750344096564393  0.7635351122277558
  0.3982244004619629  0.8749092813535022  0.8703466852488269
  0.3170879663249313  0.1707870226944345  0.8822451752685581
  0.9836626799039273  0.4871403761199679  0.6339034039572473
  0.0409423225292358  0.2093791252894968  0.7025292719276636
  0.1220645687312827  0.5794676982878484  0.5650380767877150
  0.3536724688962718  0.3582661122776741  0.7962518713820930
  0.8080935314341622  0.3414193512876641  0.6023542638606205
  0.3739320051217661  0.3153975223485906  0.6224389693654664
  -0.0031264167331413  0.6644452017413067  0.4826416178672717
  0.4407223513291086  0.7328878331735663  0.5601914216639012
  0.4328034679569389  0.8235993400405532  0.7635408280216534
  0.0816669974713925  0.9107104170703012  0.8742941413669205
  0.2861494784022671  0.8420175907025209  0.6821457918867223
  0.8467160869303859  0.7935164479489405  0.8021131889355158
  0.1857189833973924  0.2950068960367027  0.5417836039828779
  0.1122118106181075  0.8618076786566513  0.3749356294158737
  0.5649503453931164  0.4312050087242907  0.5723851189457750
  0.4105284244383423  0.7140160659517522  0.4555047746011988
  0.8714801726865153  0.8578475700571391  0.3480111375397299
  0.6607096645162235  0.0952950026374793  0.6135202215794241
  0.2519122027723122  -0.0010034815932886  0.9164434496300127
  0.9338338667352013  0.0655582112389486  0.8485062990153475
  -0.1101331947622166  0.8278531562506528  0.6341222745400359
  0.0729080141858595  0.9248021007585948  0.6896658735123171
  0.7955994560227109  0.5818621811010600  0.4359544350694868
  -0.0916320467204623  0.4391325363696790  0.3802230906766707
  0.0821061800807013  0.0574339116490309  0.7617126051793440
  0.8905601397717670  0.2720095876196132  0.4163908180415789
  0.2167032999625273  0.1020211112425118  0.5249393119355309
  0.1501367107172659  0.0889126655862671  0.6248390449887410
  0.8595699515844741  0.4937742438769004  0.9096619412772511
  0.2788480864248368  0.4054844240287601  0.3665594970506308
