cyc-co-4k-10ps
1.000
11.0985002518  0.0000000000000000  0.0000000000000000
0.0000000000000000  14.4173002243  0.0000000000000000
0.0000000000000000  0.0000000000000000  26.7964000702
Pt  H  C  O  K  
96  170  6  81  4  
Direct
  0.0000000000000000  0.0000000000000000  0.0018699899937576
  0.1249999521128992  0.1666699702868031  0.0018699899937576
  0.2499999943280624  0.0000000000000000  0.0018699899937576
  0.3749999464409617  0.1666699702868031  0.0018699899937576
  0.4999999886561249  0.0000000000000000  0.0018699899937576
  0.6249999407690242  0.1666699702868031  0.0018699899937576
  0.7499999829841874  0.0000000000000000  0.0018699899937576
  0.8749999350970866  0.1666699702868031  0.0018699899937576
  0.0000000000000000  0.3333300219343480  0.0018699899937576
  0.1249999521128992  0.4999999922211510  0.0018699899937576
  0.2499999943280624  0.3333300219343480  0.0018699899937576
  0.3749999464409617  0.4999999922211510  0.0018699899937576
  0.4999999886561249  0.3333300219343480  0.0018699899937576
  0.6249999407690242  0.4999999922211510  0.0018699899937576
  0.7499999829841874  0.3333300219343480  0.0018699899937576
  0.8749999350970866  0.4999999922211510  0.0018699899937576
  0.0000000000000000  0.6666700318690679  0.0018699899937576
  0.1249999521128992  0.8333299447943854  0.0018699899937576
  0.2499999943280624  0.6666700318690679  0.0018699899937576
  0.3749999464409617  0.8333299447943854  0.0018699899937576
  0.4999999886561249  0.6666700318690679  0.0018699899937576
  0.6249999407690242  0.8333299447943854  0.0018699899937576
  0.7499999829841874  0.6666700318690679  0.0018699899937576
  0.8749999350970866  0.8333299447943854  0.0018699899937576
  0.0000000000000000  0.2222199683821562  0.0864100026098289
  0.1249999521128992  0.0555599860957249  0.0864100026098289
  0.2499999943280624  0.2222199683821562  0.0864100026098289
  0.3749999464409617  0.0555599860957249  0.0864100026098289
  0.4999999886561249  0.2222199683821562  0.0864100026098289
  0.6249999407690242  0.0555599860957249  0.0864100026098289
  0.7499999829841874  0.2222199683821562  0.0864100026098289
  0.8749999350970866  0.0555599860957249  0.0864100026098289
  0.0000000000000000  0.5555599783168760  0.0864100026098289
  0.1249999521128992  0.3888900080300730  0.0864100026098289
  0.2499999943280624  0.5555599783168760  0.0864100026098289
  0.3749999464409617  0.3888900080300730  0.0864100026098289
  0.4999999886561249  0.5555599783168760  0.0864100026098289
  0.6249999407690242  0.3888900080300730  0.0864100026098289
  0.7499999829841874  0.5555599783168760  0.0864100026098289
  0.8749999350970866  0.3888900080300730  0.0864100026098289
  0.0000000000000000  0.8888900002512240  0.0864100026098289
  0.1249999521128992  0.7222199606033073  0.0864100026098289
  0.2499999943280624  0.8888900002512240  0.0864100026098289
  0.3749999464409617  0.7222199606033073  0.0864100026098289
  0.4999999886561249  0.8888900002512240  0.0864100026098289
  0.6249999407690242  0.7222199606033073  0.0864100026098289
  0.7499999829841874  0.8888900002512240  0.0864100026098289
  0.8749999350970866  0.7222199606033073  0.0864100026098289
  0.2504066730862368  0.4491845301580677  0.1768138134371658
  0.4992534971471793  0.4508375952138838  0.1708367075617345
  0.1327336175949610  0.6223144270088625  0.1719007087344782
  0.8759526305928843  0.2839368223740208  0.1693205239179031
  -0.0021871461773462  0.4501081022480459  0.1688753255304799
  0.0012034727032451  0.1151816534971704  0.1729681514329401
  0.1295855464675730  0.9438024858680267  0.1705904508338639
  0.3762961131638184  0.9570550021524532  0.1709760235179906
  0.8774803823084597  0.6172910937166881  0.1750654687947039
  0.5048756382278969  0.1167532273388395  0.1704357293642210
  0.2523706461371421  0.1178231980656750  0.1741507655683083
  0.2577056598287800  0.7837851544461855  0.1730325347193323
  0.7521046362499483  0.1176706404116218  0.1721073246898115
  0.6347736444532139  0.2907916868814150  0.1704594363434546
  0.3771309392384943  0.6137121231398647  0.1699346891213217
  0.0007799054109672  0.7828127416031505  0.1701761070723544
  0.7497034015069318  0.7816120739309310  0.1707305467642935
  0.6282871391446860  0.9518209861559760  0.1728682815476947
  0.8845877929324497  0.9476425804099082  0.1702192982061249
  0.7556537268123071  0.4541599750946376  0.1705024779235541
  0.3821080459057705  0.2867792045997117  0.1701185728701496
  0.1285288031929042  0.2851755056657720  0.1736980138752370
  0.5002074290172338  0.7841919739414274  0.1710536799268570
  0.6300295736143220  0.6177427742601108  0.1726857423451456
  0.3835427228836277  0.5144171641927566  0.2684138428877516
  0.1292193248423277  0.5183149813378337  0.2584051644123821
  -0.0015495066819691  0.0176704405982063  0.2598980351000567
  0.8700801507783771  0.1853195958905492  0.2577474107195792
  0.7575125895263621  0.3494885198552936  0.2604025716708117
  1.0167061395858354  0.6759234546336949  0.2609146974177050
  0.6189637204527580  0.8499965563556126  0.2593733917127669
  0.2528092972602261  0.6822862290209124  0.2591422681557303
  0.7521293037810370  0.6803476555386946  0.2566542385649890
  1.0111965564067853  0.3458881629235214  0.2613753522432659
  0.1303323752022623  0.8477360329432562  0.2596925383398361
  0.6269894061111021  0.1779945987234650  0.2556925754299227
  0.2453222722104655  0.0219711015288495  0.2643232892308111
  0.3739964549558672  0.1840372675341736  0.2549269383948639
  0.8845551419353078  0.5099529552632984  0.2599844375643405
  0.4985443754981778  0.0179337556045486  0.2635737031801707
  0.3762399079571826  0.8544177214356435  0.2570254601908022
  0.5139871386473882  0.3472042417735698  0.2571795582782013
  0.1258784900485468  0.1859845760914776  0.2630869501698473
  0.7492270450191133  0.0134909912448219  0.2560503169129162
  0.8764169114761654  0.8463924092412715  0.2534490441554790
  0.2605077442450917  0.3509035312986716  0.2635544908270691
  0.6368881347778139  0.5173951177299685  0.2604038505888720
  0.4997416050876302  0.6765632553700667  0.2564074444179142
  0.6534950348200163  0.7693977371369181  0.3373882845126712
  0.7657359505147261  0.8158040010692129  0.3591148661868809
  0.3217848312181447  0.8941722761916002  0.4114175242726071
  0.3228266019112728  -0.1897250398025063  0.4533783643613634
  0.8081350334289857  0.8343687866626263  0.7451142705510060
  0.6872333253101454  0.8682851374420761  0.7575530714058520
  0.5920354730391916  0.5333909794871720  0.8733680925456241
  0.5225622757056195  0.5642008736205631  0.9237280994594157
  0.1244614542740556  -0.0619533867786517  0.8051309331917649
  0.2205593731191737  -0.1295888156265895  0.8279685240545972
  -0.1062425142179695  0.6545184028210221  0.8897976839850205
  -0.0661981876047480  0.5823894583361687  0.9282043871803694
  0.1366432886419984  0.6808966589635285  0.7954540790464063
  0.1442456293804524  0.7817393034587525  0.7722164475821530
  0.7868400228385531  0.0551963404950622  0.4788722055419076
  0.6932577966065402  0.1251701188034058  0.4959840381201177
  0.6425283014832071  0.3010439204341901  0.8429410998091361
  0.6905135087560209  0.2928590333010840  0.9006406938348070
  0.7619478576601819  0.1135829448664691  0.7819734994180361
  0.8027280422285064  0.1901996373203181  0.8236771862107545
  0.8290916982326179  0.0708567160568788  0.8638107526444031
  0.8553642849051017  0.0905056830751649  0.9214942674132012
  0.3166370834320658  0.4314166557630932  0.7215457117951476
  0.2761480760612618  0.4861959176854373  0.6694140136513538
  0.5648708917119889  0.3400699205206466  0.5083714546734757
  0.6058449218136008  0.4142994134597076  0.4691875000657938
  0.6886056966445091  0.7563654140058983  0.5477783477909703
  0.7637374240654967  0.7895788406010463  0.4996883769021911
  0.5289887787088908  0.7378510996857941  0.5877895148130785
  0.6304735543854357  0.8122801216528455  0.6104538590760752
  0.4731969159930636  0.0210110361709352  0.5107095456310620
  0.3678752137468145  -0.0406574344628008  0.5196664985154503
  0.7434925042292730  0.6355640589113761  0.4950989664337020
  0.7203407732773071  0.5912653853342286  0.4450752091234539
  0.1022466928012148  0.2542108600487265  0.7094539491758719
  0.1801396476587680  0.3491377658846246  0.7032179859359503
  0.9656386456685307  0.4359033570867553  0.8078166616594494
  0.0384235889376889  0.3527286704710978  0.7776858542231961
  -0.1294335731593122  0.1815307891964962  0.3361555674531608
  0.9805602264265382  0.2185820852567428  0.3636075171132970
  0.4463214578020684  0.1668534389639373  0.9060938259054281
  0.4310166232617033  0.0902619635961131  0.8620298175570414
  0.1468635798008515  0.3064771718738717  0.9201216527372131
  0.2622858357846940  0.3694689267635493  0.9032389225191677
  0.3933307736504312  -0.0392091458321176  0.8887097954431405
  0.5356637138820449  -0.0551169871014170  0.8779610159859957
  0.1635053900463434  0.7523916987465434  0.5356077390731716
  0.0340729302446669  0.7366306810202838  0.5066755682491444
  0.3399955860962393  0.2676424047337441  0.3673161542190147
  0.3753828512302201  0.1797207667724631  0.3381823023823947
  0.4397409690744897  1.0152904610065927  0.3829463306607293
  0.3462856153539020  0.9898847750319993  0.3393695634143488
  0.9484011845467929  0.1251138835383155  0.6594153603285904
  0.8467765668046727  0.1864824420364415  0.6266897858931191
  0.9359293696745491  0.2671425200751828  0.9123811062475126
  -0.0201686926450893  0.2857671892519695  0.8563367300415414
  0.6652505801135201  0.5456353355076189  0.5988815376079815
  0.6743397150877379  0.5455363165805113  0.5394596291192076
  0.4483674287607408  0.8718804663589722  0.5806831650011212
  0.3217653788511490  0.9158782351666755  0.6036285819373226
  0.2258770527570534  0.6255283570983464  0.6573281368003001
  0.2192899337372433  0.5567826092551075  0.6109795523767833
  0.3281317241137479  -0.0454837883305464  0.7597276704992878
  0.4295868889246313  0.0327071918433949  0.7417304597569271
  0.8641717386495072  0.2235443242048794  0.4833653116302098
  -0.0206250472322037  0.2090770051191297  0.5207688954987246
  0.7043220677705728  0.0252083231427364  0.3809035670112616
  0.6307849454492364  0.9587419942537210  0.3450901662452669
  0.7524213291021588  0.6419944505629102  0.7620634783106366
  0.7398704493851079  0.5438974223609003  0.7848753048208622
  0.7148907114105977  0.5779079530893612  0.6772087400382121
  0.8156399677003068  0.5156698690139796  0.6487823939505112
  0.3016504172225458  0.2475894377494877  0.4770531140007938
  0.3737362013959746  0.3418101034751301  0.4888842532944845
  0.7433114625520721  0.8508791542346906  0.6800219775888723
  0.8168809377311690  0.8093052792945161  0.6354282140956597
  0.7450256341039370  0.4291710384078112  0.8622664572244366
  0.8143987637369365  0.5267815089262835  0.8710599506146941
  0.6202551045924912  0.0654115113112856  0.5634374092880645
  0.5344070029856572  0.1496461247206047  0.5574349006309829
  0.0286130611159374  0.0184188160937665  0.5280377119102474
  0.0766364218680857  0.9229084450342044  0.5063425002931273
  0.8169700639894524  0.4231347471087427  0.3349777641543103
  0.8405823270299021  0.5026759362120360  0.3764240842417276
  0.3384690441477222  0.7710681870356729  0.8785350312738592
  0.2286158292503072  0.8031499605302980  0.9118794016205933
  0.7664690091997208  0.9513843039545894  0.8893680748408876
  0.6850183525802926  0.8849787570834529  0.9202166308123775
  0.1980515353453731  0.6772215285940648  0.8718598043877327
  0.0952881072583191  0.6031550025256001  0.8675565626053324
  0.8437189304997588  -0.0921864779481993  0.4346642595642164
  0.8950717326954937  -0.0810587256503317  0.4865894914742808
  0.4769932050541164  0.3412929537880179  0.7902393347511307
  0.4742269272234680  0.2363437852849069  0.8189291342945759
  0.3522048006590828  0.4434412201824290  0.8057642955932642
  0.4152619048823762  0.4977803708702644  0.7613874986285694
  0.4898625902736946  0.2043149790926283  0.7437268822300896
  0.5732848478034757  0.1209341952775110  0.7189075215227677
  0.4917231693908281  0.6808870881286390  0.8736290472478109
  0.5334792453547710  0.7621801627310932  0.9105809714468069
  0.2514103936563375  0.1594769923931187  0.8740604207147586
  0.1138463158475017  0.1761477076005958  0.8879085112540798
  0.8717206540434058  0.3684120322921200  0.6270411856175349
  -0.0017178417594673  0.3726377373930871  0.6556086689583777
  0.0627217471916623  0.0883515465297072  0.7230463507688402
  0.1485768600521103  0.0857379588875154  0.6743215543865081
  0.0473888447959174  0.4494360645329910  0.6066261052908170
  0.1722989070969171  0.4145345480512926  0.5902587061681360
  0.2645762102968608  0.5207931688170525  0.8752276791867197
  0.3912925256991974  0.4804663231902925  0.8873489025842317
  0.8398975667084554  0.2654168952069382  0.5602404318106582
  0.7202095742083371  0.2920062291970759  0.5854823735240232
  0.3726200037189064  0.3344415337951464  0.6630986049040348
  0.4442980031559006  0.2399346754095879  0.6769646787321087
  -0.0636260836310269  0.6425786505357874  0.4416514452648889
  0.0685622886728851  0.6641647223216450  0.4291428026105811
  0.5013193484676116  0.5836163423661057  0.5690932963476306
  0.3886566318454079  0.6153507432582265  0.6059409091431291
  0.5057300643021282  0.8768278446122030  0.7561167324573675
  0.5525075941774643  0.8295287898522395  0.8040158895768866
  0.0154154603611648  0.9080224910788119  0.9368916835780254
  -0.0206621218450491  0.9547745023994839  0.8888568736659495
  0.5747424562310086  0.6010128094229036  0.7459980625244785
  0.4753262858866370  0.6747352627993369  0.7475409413026610
  0.8409186401456671  0.7504411978994707  0.8104890695579879
  0.9383209378232003  0.7273851943531383  0.7683149246937757
  0.2644209314699112  0.2741605590648586  0.5446607559882974
  0.2980506744020219  0.2409155847532225  0.6003047477369574
  0.1065969905715977  0.7625116841619879  0.3458828474802221
  0.1855832892165723  0.7969411830124984  0.3946297781529232
  0.5765161697016019  0.4027779807146205  0.5816059006087111
  0.5026376864923936  0.3185884158088282  0.6065577461270786
  0.3369670736902906  0.8117130177517822  0.5381371386314121
  0.3648044929082514  0.7000973134822868  0.5366095466976911
  0.9780689599064950  0.8395472246599265  0.3820139879529570
  0.9485769172454234  0.8890119179384924  0.3331002517620413
  0.7263026205538586  0.9412444274710851  0.6031284362399569
  0.7802519278400292  0.0351800165848753  0.6134365529263914
  0.2057998725214751  0.0444912068570830  0.9021276956968337
  0.1817347569616784  0.9429339427701384  0.9099341899703922
  0.7412030999022444  0.0075399092832083  0.7265089416488436
  0.7783507626175858  0.0981003331480995  0.6999781009860107
  -0.1207013476782809  0.6791127776542768  0.6024511303946772
  -0.0124479359071595  0.7351137206282724  0.5755805812047231
  0.0536646749999761  0.7322895754022909  0.6555678623277431
  0.1372533033959200  0.7139172264618455  0.7049061407097814
  0.7824566804592878  0.6648974351760389  0.3635922819399554
  0.9074374361857235  0.6314476909037255  0.3431216825287299
  1.1319541443504928  0.3687491375701115  0.3692707696697016
  1.0004395058151399  0.3801966319783798  0.3747720671430118
  -0.0119423298006867  0.0679772351308987  0.8029070075807171
  0.1115073786027339  0.0915787878561782  0.8135159952005185
  0.3116055048824376  0.1520182247301722  0.4231613931458730
  1.3186252419939779  0.0848308873972541  0.4680269551784758
  0.1217146655901471  0.1673778914191380  0.5750265379615597
  -0.0020542419770908  0.1065297800215970  0.5888032109039280
  0.2812246801358405  -0.0616015641890485  0.6848199055218478
  0.2094992372706304  0.8459079112082606  0.6657593083049849
  0.9309132646299986  0.7992493468977112  0.8882708491716569
  0.7908573352761294  0.8097470327019443  0.8802583236780264
  0.6469041492642731  0.5135138137667145  0.3945092772575962
  0.5577644707442363  0.6572314799499892  0.4201841415900298
  0.2185345058407002  0.5611901736680963  0.3582485545838602
  0.3943390313650882  0.6612567214582563  0.3551971020683810
  0.2813662352797208  0.4939753192762401  0.4106863100927670
  0.3263616058676531  0.6699992404485702  0.4124027133290042
  0.4648037788406009  0.4008299382681809  0.4071336638697443
  0.4724533409682614  0.5638966633778848  0.4508980728697495
  0.5803967913191951  0.5630695353293268  0.3438812685606848
  0.5445973373131856  0.3986424845487360  0.3458189359027150
  0.4870909806055314  0.4425332380986589  0.3718452531234219
  0.5583913799159391  0.5283863933110174  0.3814425286726102
  0.3672035214883230  0.4606886404019850  0.3454489717144647
  0.4950933448425909  0.5953357560684864  0.4142765458239833
  0.2990757841143143  0.5362926254228991  0.3756407820651288
  0.3787174543982471  0.6216041996611140  0.3889988006669658
  0.6948735934072918  0.7790995053753464  0.3705152654793117
  0.3099387856699026  -0.1713901044271257  0.4187755571756637
  0.7607343446003597  0.8929959540552674  0.7381371369319302
  0.5146348150664461  0.5506845289673836  0.8873586211658068
  0.1986909709753222  -0.0983059507432026  0.7960165957710601
  -0.0681431030897479  0.5896504649096156  0.8915274162616909
  0.1071115779906568  0.7210775324271750  0.7673547508035294
  0.7600257952539086  0.1203915620952725  0.4724439777781505
  0.7132510093979723  0.3088747884360723  0.8664047799061958
  0.8290599974719730  0.1365197251967168  0.8046968826450671
  0.8692660339612390  0.0430303351285120  0.8934124160403057
  0.2953516300518502  0.4243152911658966  0.6848816009882415
  0.6171103124757060  0.3496894423133776  0.4795265063343300
  0.7384970717165776  0.7330069606921226  0.5196194813005744
  0.5653156702305279  0.7991655693539820  0.5854637870945516
  0.4107920197650646  -0.0134920386323192  0.4910819026408790
  0.7413863588970504  0.5716820775645725  0.4783554612156651
  0.1028259344693814  0.3184917722571006  0.7111370242673709
  -0.0068838318481462  0.3693736094032516  0.8093024907408071
  0.9035650427969835  0.1871720556218784  0.3730583032463803
  0.4139653790659564  0.1576952992397290  0.8690970210957214
  0.2402286329333180  0.3121526892749788  0.9200645599599748
  0.4609276237003581  -0.0285873257397615  0.8652172863840570
  0.0727365428287551  0.7769371088645590  0.5315764320126335
  0.3788042554504742  0.2064425143400598  0.3721771221945174
  0.3590813989352889  0.9919040144975778  0.3783470774372690
  0.8638103836547771  0.1237566119898589  0.6448324349215852
  1.0001605007667329  0.2545593078941513  0.8876190590858900
  0.6235015427221977  0.5262593249887312  0.5681459131307249
  0.3676214523974337  0.9002208461487563  0.5751750735368448
  0.2757997276617226  0.5794789192375048  0.6390993707936597
  0.3991248438257750  -0.0331223000055952  0.7384231644274117
  0.9362528668875548  0.2614816399707066  0.4995205371704280
  0.6337202209063610  -0.0120540187966043  0.3768904815737296
  0.7210730936463300  0.5801538503999704  0.7527690739560393
  0.7583218181515129  0.5718302699908077  0.6456771633157239
  0.2932238579867759  0.3132203294406498  0.4912042807249279
  0.7393367559521561  0.8352928082611739  0.6420475184587581
  0.7511773340049148  0.4936472877636529  0.8490039332149066
  0.5732952509027577  0.1027201242645902  0.5374470716018277
  0.0199671110755761  0.9755433362894321  0.4998731132170331
  0.8401796498844676  0.4343986468107332  0.3713007270168637
  0.2506992446883750  0.7950664740046050  0.8771190973536086
  0.7024213795405051  0.8964771562719909  0.8847041415635596
  0.1697357287706035  0.6242402464943444  0.8518496234718155
  0.8130555901313333  -0.0935332017520966  0.4686376483744696
  0.5225308895009886  0.2802199659954819  0.7967524761336588
  0.3891783974325250  0.4349061502258086  0.7711766837248062
  0.4870094388945374  0.1479305835294522  0.7188904248866972
  0.4981150036288365  0.7517600806794764  0.8754341126735131
  0.1726723775484160  0.1271953739098221  0.8798812439742777
  -0.0721392036703472  0.4124325327690609  0.6455548215873047
  0.0812458187180522  0.1207392039506840  0.6899545950898325
  0.1160369665343868  0.4678452393071041  0.5848310271321842
  0.3096055532586675  0.4619739145872841  0.8750699087963343
  0.8051955569177599  0.2775111603805322  0.5927820129751273
  0.4107098598714473  0.2772953445237773  0.6471906364238187
  0.0194158749841044  0.6379388454294713  0.4555774040139148
  0.4395505850449307  0.6295558002740204  0.5749994941945573
  0.5549179679570803  0.8244489704158265  0.7677724896778063
  0.0282633946374084  0.9005797535530204  0.9002753177852499
  0.4837910788287972  0.6081606312617183  0.7376421255958832
  0.8442094905462945  0.7432592379146548  0.7736526568676980
  0.2267086376550673  0.2510418111706992  0.5768019664771574
  0.1066154970720564  0.7684859922820911  0.3829399204974406
  0.5635807390089084  0.3349897361199256  0.5801770155122171
  0.3247457279838740  0.7526718612830211  0.5169013189239423
  0.9214920766561513  0.8904323421220358  0.3697427790540541
  0.7141261683095040  0.0069025812011785  0.5927169251575313
  0.2496282533985318  0.9865926971837485  0.9187851292338256
  0.7132015328662300  0.0759975361235289  0.7216256273619546
  -0.0647178406995583  0.7298002643356107  0.6072192704121900
  0.1393654496290291  0.7302840536090175  0.6691124202963199
  0.8488235255724860  0.6246024193643523  0.3728542477319950
  1.0664916545711043  0.3495502203461041  0.3922586239742445
  0.0674002998719290  0.0604233952853192  0.7878963625707063
  1.2771974927604335  0.1383080527475674  0.4557458268240003
  0.0503739730428286  0.1265213823546194  0.5596135035271578
  0.2200528952012147  -0.0818761902669134  0.6613576944318150
  0.8594466033059732  0.7630228070341870  0.8784650636477942
  0.2956096932076838  0.3767150094194352  0.3422535289581363
  0.6643408997088760  0.2496694126847018  0.3919220936277660
  0.5807353839861991  -0.1391701417522100  0.4448897067878052
  0.0779438333354726  1.0573861659414927  0.3862568389330198
  1.0742192361590841  0.4206514094073016  0.4818007270259284
