cyc-co-4k-10ps
1.000
11.0985002518  0.0000000000000000  0.0000000000000000
0.0000000000000000  14.4173002243  0.0000000000000000
0.0000000000000000  0.0000000000000000  26.7964000702
Pt  H  C  O  K  
96  170  6  81  4  
Direct
  0.0000000000000000  0.0000000000000000  0.0018699899937576
  0.1249999521128992  0.1666699702868031  0.0018699899937576
  0.2499999943280624  0.0000000000000000  0.0018699899937576
  0.3749999464409617  0.1666699702868031  0.0018699899937576
  0.4999999886561249  0.0000000000000000  0.0018699899937576
  0.6249999407690242  0.1666699702868031  0.0018699899937576
  0.7499999829841874  0.0000000000000000  0.0018699899937576
  0.8749999350970866  0.1666699702868031  0.0018699899937576
  0.0000000000000000  0.3333300219343480  0.0018699899937576
  0.1249999521128992  0.4999999922211510  0.0018699899937576
  0.2499999943280624  0.3333300219343480  0.0018699899937576
  0.3749999464409617  0.4999999922211510  0.0018699899937576
  0.4999999886561249  0.3333300219343480  0.0018699899937576
  0.6249999407690242  0.4999999922211510  0.0018699899937576
  0.7499999829841874  0.3333300219343480  0.0018699899937576
  0.8749999350970866  0.4999999922211510  0.0018699899937576
  0.0000000000000000  0.6666700318690679  0.0018699899937576
  0.1249999521128992  0.8333299447943854  0.0018699899937576
  0.2499999943280624  0.6666700318690679  0.0018699899937576
  0.3749999464409617  0.8333299447943854  0.0018699899937576
  0.4999999886561249  0.6666700318690679  0.0018699899937576
  0.6249999407690242  0.8333299447943854  0.0018699899937576
  0.7499999829841874  0.6666700318690679  0.0018699899937576
  0.8749999350970866  0.8333299447943854  0.0018699899937576
  0.0000000000000000  0.2222199683821562  0.0864100026098289
  0.1249999521128992  0.0555599860957249  0.0864100026098289
  0.2499999943280624  0.2222199683821562  0.0864100026098289
  0.3749999464409617  0.0555599860957249  0.0864100026098289
  0.4999999886561249  0.2222199683821562  0.0864100026098289
  0.6249999407690242  0.0555599860957249  0.0864100026098289
  0.7499999829841874  0.2222199683821562  0.0864100026098289
  0.8749999350970866  0.0555599860957249  0.0864100026098289
  0.0000000000000000  0.5555599783168760  0.0864100026098289
  0.1249999521128992  0.3888900080300730  0.0864100026098289
  0.2499999943280624  0.5555599783168760  0.0864100026098289
  0.3749999464409617  0.3888900080300730  0.0864100026098289
  0.4999999886561249  0.5555599783168760  0.0864100026098289
  0.6249999407690242  0.3888900080300730  0.0864100026098289
  0.7499999829841874  0.5555599783168760  0.0864100026098289
  0.8749999350970866  0.3888900080300730  0.0864100026098289
  0.0000000000000000  0.8888900002512240  0.0864100026098289
  0.1249999521128992  0.7222199606033073  0.0864100026098289
  0.2499999943280624  0.8888900002512240  0.0864100026098289
  0.3749999464409617  0.7222199606033073  0.0864100026098289
  0.4999999886561249  0.8888900002512240  0.0864100026098289
  0.6249999407690242  0.7222199606033073  0.0864100026098289
  0.7499999829841874  0.8888900002512240  0.0864100026098289
  0.8749999350970866  0.7222199606033073  0.0864100026098289
  0.2557848631250503  0.4514141988477590  0.1709185149125077
  0.5067974436985542  0.4461546131333551  0.1719263114422375
  0.1267233769059831  0.6184346031493496  0.1699042205995105
  0.8831238455673663  0.2779927410018678  0.1689861645160235
  0.0067254862554870  0.4483821566540117  0.1736844632714600
  -0.0012634133605327  0.1191091525586495  0.1718390701302002
  0.1314256644597935  0.9478634559518236  0.1725662277912649
  0.3771926265912417  0.9547379869567998  0.1693251286259862
  0.8802654960534440  0.6096175217455966  0.1716001864039075
  0.4990363594127715  0.1190641555488136  0.1695570395238575
  0.2453757071509120  0.1180057511483641  0.1694878709416918
  0.2599508753204820  0.7851870723008150  0.1726523595363483
  0.7521019121251284  0.1094891130615019  0.1720444145042797
  0.6358690083063642  0.2779228316648685  0.1696154679319981
  0.3762461087769725  0.6077339506485455  0.1731240678242857
  -0.0058631025925729  0.7808854017151203  0.1728392967886239
  0.7564541344348199  0.7767659696594642  0.1715329658856558
  0.6248070743860502  0.9501321467671034  0.1693016058841869
  0.8768005097825500  0.9498593133073846  0.1703209981021132
  0.7549779303866790  0.4450992772130865  0.1756261335093910
  0.3785836386784376  0.2842990653819869  0.1709880635084055
  0.1273802162928019  0.2835661141473175  0.1758340797105748
  0.5074966168682571  0.7845512666466781  0.1765535554740913
  0.6299005707429864  0.6148488891047141  0.1698196447052089
  0.3751605056300027  0.4978863734072320  0.2657314587237708
  0.1265394110318850  0.5050577222236863  0.2581376097005098
  0.0058736941767810  0.0150918281519357  0.2586718291726216
  0.8790880171956243  0.1785673489521161  0.2570782441205948
  0.7522757046336872  0.3452720878427633  0.2597168386189144
  1.0071099742226164  0.6771754874428317  0.2564864871174728
  0.6267395061032565  0.8484749251515246  0.2549239927641151
  0.2547770846733459  0.6690931897042024  0.2573105428466809
  0.7600953201160515  0.6823244687670106  0.2577834171979670
  0.9970832546501270  0.3452065834289474  0.2592174703095541
  0.1286413917563722  0.8449498406066150  0.2598145413063329
  0.6340509391761024  0.1835335209320352  0.2546725546499525
  0.2535210351636170  0.0086757560121540  0.2619650476746896
  0.3708970961488589  0.1739856389043040  0.2549412368714874
  0.8736884856066350  0.5115087393873048  0.2592736364436637
  0.5072318325430485  0.0194976047267302  0.2569937230284307
  0.3788310123359329  0.8479916884434301  0.2582249446519909
  0.5015253303343624  0.3405933650132069  0.2573140047072203
  0.1214181411115837  0.1728985597246956  0.2578195924378299
  0.7574954055289144  0.0112095135487023  0.2530220897149561
  0.8770714942788123  0.8458866735566034  0.2596992228981921
  0.2477423003125187  0.3396989206998212  0.2644213475742123
  0.6338607139157428  0.5179715716409437  0.2613746600383446
  0.5023006394846780  0.6774027694338440  0.2568570302305024
  0.6365866394384362  0.7179905372403101  0.3567343574680646
  0.7630579846791908  0.7380123164437056  0.3380885785913847
  0.3655935096223412  0.8770160105002538  0.3861920235885909
  0.3029248049577451  -0.1358644680158975  0.4361566277926066
  0.8855587293883237  0.8164550867200603  0.7549019511429104
  0.7549519672751357  0.8538041518517149  0.7568511308186565
  0.6111602864450006  0.5237216502971592  0.8671323381471879
  0.5341416365547719  0.5415355442581883  0.9147240159158085
  0.1709172945139456  -0.0464756890662956  0.8196703475936745
  0.2742411377434862  -0.1094365895454331  0.8379697491332613
  -0.0397478766492305  0.4170878210446617  0.9280057397282470
  -0.0242133282878843  0.3838915552560552  0.8747412676924199
  0.2479728313970754  0.7508468080143342  0.8074930270974455
  0.1956848285377808  0.7871078956220443  0.7593537514514400
  0.8705104025413777  0.2260710345343627  0.4955076912949262
  0.7445243003224562  0.2011719555448753  0.5211032556171183
  0.6179126822011610  0.2421663261277835  0.8733477849185334
  0.7532238145009004  0.2490958946146498  0.8839491700619027
  0.7296762570498281  0.2071440881675197  0.8107659172606854
  0.8145963113379869  0.2322813972033101  0.7673685070655285
  0.9469888409287930  0.0849488792593597  0.8732161912047970
  0.9411494261223204  0.1478026777793248  0.9191874011909452
  0.3238203388351614  0.4807742771366573  0.7209846681303039
  0.3040595398150928  0.5009400988076225  0.6643388243295150
  0.5919816077703322  0.3372929672230714  0.5353723422891457
  0.6423775154614895  0.3260606762822852  0.4819529662479624
  0.8530155851791391  0.6811659920452836  0.4691431737384928
  0.7421542268888196  0.6900519791168486  0.4294611116661876
  0.5855498377401046  0.7530294663283341  0.5685368230467046
  0.6815155655714177  0.8191236335354448  0.5941085127887918
  0.5460632155067154  0.0831789860752674  0.5012830550264188
  0.4486835284517265  0.0085252153446064  0.5126251362538892
  0.7678573911297479  0.5505611519916443  0.4865230665740951
  0.7142484603461943  0.4430844921806544  0.4969609463291092
  0.1918661117437593  0.2552853446997355  0.6875925544338419
  0.2182045468897684  0.3646020452941786  0.6954320969563325
  0.9265724106040516  0.3816058046101432  0.7446251946428367
  0.0266300598454342  0.3137249056918774  0.7254803714518099
  -0.0247353491797666  0.1721717588162745  0.3398936959867543
  1.0154082398720732  0.2485099864856256  0.3795244233799087
  0.4622659984233384  0.1775589138100432  0.9247310088214791
  0.5064550809906393  0.1029776675592593  0.8871619644848274
  0.2047064118533969  0.3311340695571728  0.8918613931233795
  0.2848943400606933  0.4198851336394307  0.9008013893345278
  0.4555760077565401  -0.0578090915173729  0.8830085232162829
  0.5885203582025115  -0.0458941010318127  0.8693614956550441
  0.1779759558305766  0.7728736580111698  0.5237358333520079
  0.0583406193999038  0.7242697663186791  0.5042462700027582
  0.5326563865186396  0.2481488967518330  0.3530686173446650
  0.5361425489840344  0.1453990212027911  0.3425214848955453
  0.5533012480045723  0.8734005436174774  0.3629647672269362
  0.4710315586785829  0.8118708498538123  0.3294114999020508
  1.0403753903170228  0.1217826777471611  0.6450050287434375
  0.9767167715873962  0.2054292618189409  0.6196724793516664
  1.0007286948161025  0.2276206876908076  0.8644314326147137
  0.0330263727516294  0.2815717986685056  0.8149064140852341
  0.7435279088777467  0.5659733428139929  0.6107982722127584
  0.7219993511375917  0.5286228787865889  0.5567628542235243
  0.5024658839554075  0.8963499518598285  0.5724197741531001
  0.3922284013548577  0.9490080325607082  0.5963100999738409
  0.2364153732549992  0.6224684080639465  0.6216484893926152
  0.2638915406813632  0.5344976725886381  0.5837925159729578
  0.3615900599586992  -0.0450020740226003  0.7654944868587679
  0.4364114936623495  0.0393618288563838  0.7621136068576235
  1.0500390753164985  0.1929669210405221  0.4515389392904258
  0.0811941293287668  0.1966499832278866  0.5073904862474508
  0.7392206116650223  -0.0514042537070066  0.3539614710092365
  0.6412031359323377  1.0068927757107053  0.3322904141740388
  0.9088025582883738  0.5859631043238662  0.7632182316662716
  0.8275914753806790  0.5079474176210105  0.7793507567617134
  0.8778127232298739  0.5644629134644468  0.6712209559000570
  0.9667512011688107  0.5083030708515202  0.6392992492506901
  0.3358571635294108  0.2516129003810163  0.4685432444062734
  0.4226987073716688  0.3277766949414722  0.4873106069543220
  0.8263074382696568  0.8621909796432455  0.6805677090737617
  0.8962630973123351  0.8650812712964474  0.6220914122990097
  0.6960814987995385  0.4061764755463655  0.8476870012536152
  0.8073209506164423  0.4600766111896691  0.8698900336587646
  0.6642788953853740  0.1008859874020290  0.5707908284780971
  0.5395821668273380  0.1463453201275374  0.5669613641235133
  0.1093102760711513  0.0087907260810443  0.5033644356019397
  0.0847718543005313  0.9105981925015658  0.4957017999097540
  0.7567916956651665  0.3425571121197756  0.3417825200216024
  0.7730018173499249  0.4135112875052485  0.3870720410737092
  0.4146655765181968  0.7662849070645887  0.8911434303205553
  0.2714766421626509  0.7621512161465380  0.9038920995076493
  0.7813930355584298  0.9711188314995212  0.8453822855851593
  0.7398950460147251  0.9770977699664272  0.9057763139046477
  0.0928308330337610  0.6343930441764852  0.9262230168298407
  0.0252564915295234  0.5600512260742656  0.8956843382328581
  0.8799506609567439  -0.0078954540606805  0.4671856315439227
  0.8192745055193655  -0.0058255222748597  0.5191136141630303
  0.4589303026482272  0.4031137561181070  0.7933556114555104
  0.3911080985465586  0.3358346227429750  0.8357509537075981
  0.3362716545953775  0.5479902796560924  0.7964067841423565
  0.4573269277690750  0.5899481872732496  0.7736067961589169
  0.4717459399391244  0.2423307568785564  0.7720554021175124
  0.5806130687571860  0.1907638909790085  0.7480067155024529
  0.5812284429739765  0.6662339545520815  0.8829234789866838
  0.6419977034865052  0.7491524436590142  0.9126902863268626
  0.3139679955888506  0.1684031054654605  0.8677565913959893
  0.1976552236005239  0.2007440399432010  0.8962416805236463
  0.9659700740702559  0.3715069726697083  0.6127884141183985
  0.0753823946946626  0.3612663394857539  0.6508972468953670
  0.1218425425796322  0.0953947873737072  0.7236160481184843
  0.1835396249929921  0.0593216201157055  0.6741902402215164
  0.1459320502729477  0.4263803725637174  0.5690232170349215
  0.2288220997776812  0.3795670722786587  0.5273137385500506
  0.2179989883775154  0.5525720186829779  0.8846181367198507
  0.3584261004954100  0.5414951467086513  0.8928141275852147
  0.8444438127466817  0.2931719574845172  0.5694621049328925
  0.7792592883346858  0.3320800753757250  0.6184503805169643
  0.3981275840565369  0.3575723807021089  0.6754926190712340
  0.4406648862945967  0.2558923247628441  0.6934790184098525
  -0.0512791826992748  0.6301953513173190  0.4175754926477512
  0.0195493823108948  0.7219470263480181  0.4213764157729910
  0.5666112352504654  0.6115549165605371  0.5673590494085546
  0.4425537715245267  0.6325972574829153  0.5764977332600595
  0.5695103137178269  0.8866485718008730  0.7814500098611085
  0.6237700492710457  0.8249495292436047  0.8209643889129995
  -0.0094552689119397  0.8829407656604487  0.8782650149141600
  -0.0164845775959980  0.9572225036098987  0.9219622446439912
  0.6571866506483219  0.6071434037661514  0.7502630205263221
  0.6028149147462454  0.7063120043610258  0.7633160313667214
  0.9156832523882467  0.7416430057812123  0.8189571237632373
  1.0276025176239749  0.7089673496409608  0.7897907406314539
  0.3741211415593365  0.2270717075851800  0.5512096208858310
  0.3922702460266119  0.2267518201563099  0.6115534165995787
  0.0468764397798362  0.7833905333443504  0.3378647480102512
  0.1563742497657308  0.8261455863993636  0.3688516666569619
  0.5979502768604874  0.4144363149578586  0.6204862885925669
  0.5604409190954611  0.3091978849262285  0.6312127648038118
  0.3527909101741000  0.8559957990955409  0.5260948579050970
  0.3828473014730863  0.7661760097484772  0.4960968624059202
  0.9390407615668366  0.8945335025598508  0.3711714917766477
  0.9217686996800144  0.9768832020548298  0.3365926471716796
  0.7614852919095376  0.9764493722252020  0.6130532733786501
  0.8465601797392572  0.0635636109911483  0.6089973462908594
  0.2410498146960091  0.0664548163591092  0.9100357400589442
  0.1717642188088273  0.9724541563800804  0.9033486312894615
  0.8613524655954813  -0.0198372730504671  0.7709899656997398
  0.8208402704701012  0.0823997491082059  0.7878542344192739
  0.0302963461703275  0.6637897879222844  0.6370597316646418
  0.0755433274206596  0.7313396828088831  0.5913886961675641
  0.1830178325463900  0.7776483874562828  0.6570951412194146
  0.3050334562591859  0.7742616330265109  0.6901867374516313
  0.7785415095880747  0.5595628564980997  0.3784083550229035
  0.8935952023059628  0.5356053646774165  0.3516746778303219
  1.1613106792613388  0.3582757244864680  0.3579304746933648
  1.0190329289550397  0.3849869765869768  0.3433050403225801
  0.0014589553572677  0.0586827528620101  0.7878677088859580
  0.1087247171170083  0.1244510522556671  0.8062533534654287
  0.3957738800057788  0.1779132798439410  0.4125816527345751
  1.3808827934850396  0.1035942772130568  0.4560922925125137
  0.2310189003585566  0.1297238071000083  0.5547754865039618
  0.0919057011360224  0.1145019502554024  0.5688500794497292
  0.3489287847762969  -0.0206934987382137  0.6802527362013649
  0.2645049350630858  0.9137196263067765  0.6530246183799939
  0.9040306785480087  0.7208940406597260  0.8953261524140594
  0.8160986375912386  0.7998879663657640  0.8893701357930996
  0.5770212138492641  0.5140096608662948  0.4289852772643054
  0.4805361841691209  0.6760888956429609  0.4099046195841492
  0.1874493847006573  0.5203541803170190  0.3506186400108437
  0.3486450868686009  0.6516666464408156  0.3426130335287040
  0.2561596280127049  0.4848040897781445  0.4029561104705289
  0.2600132761029560  0.6621384782367253  0.3963410990236321
  0.4350414567334830  0.4119750233465352  0.4055615897146474
  0.4099831022089701  0.5957884524192915  0.4512010687489993
  0.6017634693585582  0.5635000541853841  0.3704601658504014
  0.5443299601331455  0.4059295629521477  0.3567155819833472
  0.4742709853023891  0.4492863760846389  0.3729940961515657
  0.5319515153628516  0.5352789815178240  0.3951565057007663
  0.3573280871401349  0.4582064360472693  0.3414584992957865
  0.4385159014625125  0.6087673600433841  0.4124752994523232
  0.2737748177648782  0.5223211660327081  0.3678489313555927
  0.3270319826691306  0.6168075122075615  0.3783301769879992
  0.7179383279473017  0.7079568215827710  0.3666729590825468
  0.2884536716734122  -0.1130619811365649  0.4020065223343114
  0.8311377082145808  0.8674249979217034  0.7387627015919623
  0.5442703882554143  0.5617374391323128  0.8800670084309570
  0.2480491690806162  -0.0745200185600050  0.8099567200049648
  -0.0505614449582041  0.4403936652854349  0.8936269419163539
  0.1856765543674049  0.7352212283222156  0.7825399454130292
  0.7898892199491728  0.2511906704762981  0.5048357669784198
  0.6928402438025703  0.2709324400775356  0.8610679369823196
  0.7561946785592809  0.1856235352780785  0.7787850931516654
  0.9133536753631161  0.1403478174013154  0.8849824565902222
  0.3161920789911100  0.4483461434482157  0.6877139941119881
  0.5992632782813448  0.3696130723919033  0.5033368013936856
  0.7580017041073271  0.6761399912356544  0.4663408769522350
  0.6215887056164313  0.8157967671559020  0.5674838707648278
  0.4789986704408825  0.0462665769958596  0.4839730933903468
  0.7923262056577249  0.4839270816349217  0.4954235752049255
  0.1606200030504918  0.3142067322469138  0.7005233716142190
  -0.0359229242108941  0.3221509696712656  0.7518983230925326
  0.9769161806381498  0.1846029344394278  0.3769194559358815
  0.4839640878350986  0.1658168494452693  0.8883600219894138
  0.2689069569481667  0.3536946539134435  0.9130930895792294
  0.5071773986478111  -0.0183383818875033  0.8634304225003054
  0.0862331694541143  0.7694916415835853  0.5294451733192872
  0.5160792413435371  0.1893729346218536  0.3693855827525016
  0.4944900407791510  0.8196728725522375  0.3665737453227494
  0.9953468418409392  0.1392868056749856  0.6152962316918020
  1.0482574229804731  0.2796529951012903  0.8515333421102221
  0.6798302242752398  0.5452968808507771  0.5871281814043529
  0.4219826828620769  0.9269632178204068  0.5634885829269267
  0.3012459138213523  0.5767766429171204  0.6078539122019621
  0.4367253311107412  -0.0260778973976214  0.7506702549709270
  1.0314729338266535  0.2274481590161388  0.4799605290601264
  0.6611050658407662  -0.0229201586052179  0.3652843992124701
  0.8737602997690820  0.5258386346995897  0.7505792021394418
  0.9198840281815742  0.5658144536902068  0.6395632891023666
  0.3423656908043716  0.3110642578380340  0.4915051167543528
  0.8164480229867448  0.8681664777503595  0.6403928764328201
  0.7398702475109853  0.4653039739293986  0.8436259617440199
  0.6117962994323279  0.1330869495639681  0.5450229938215352
  0.0672765029742557  0.9682003407734224  0.4778324536264633
  0.7589409385411245  0.3457463226227588  0.3809843485824551
  0.3308713557495691  0.7846628494586450  0.8788489620100015
  0.7289706100775060  0.9413126064286366  0.8734343958772411
  0.0772972842579217  0.6152666632237442  0.8907852381912076
  0.7988107036499946  -0.0103679455012013  0.4835237994080037
  0.4568826889000260  0.3411847031533138  0.8090272440516744
  0.3902336072297317  0.5382287622908095  0.7707551513782818
  0.4912383085737886  0.1971848401622662  0.7452261821619741
  0.5906189112206296  0.7371524710976882  0.8820421910585242
  0.2305724470191339  0.1483128355956685  0.8750680455050015
  0.0462391787500090  0.4002343052740420  0.6217222594175000
  0.1420896108142394  0.1117794742793633  0.6883663152989463
  0.1842950161818727  0.4351169047396724  0.5387697880304205
  0.2903604165596474  0.5186368811823121  0.8745676080520276
  0.8567720525534799  0.3081928193262504  0.6056430927394670
  0.4316851201965749  0.2929446360062229  0.6644810600996189
  -0.0092918306582256  0.6693003566670548  0.4427477967868484
  0.5064224694582891  0.6614696587871762  0.5556181149705037
  0.6103734259862117  0.8263376211809751  0.7859129320180663
  0.0122482417728425  0.9457642122148452  0.8867051754471981
  0.5828091409333386  0.6449827093027389  0.7500226128826414
  0.9411699805841689  0.7182487413937981  0.7860658165282717
  0.3796872852723108  0.1846043006660925  0.5805985116225307
  0.0701328946380625  0.7969620615677977  0.3706188341412487
  0.6276114670601822  0.3512763236950553  0.6142523924512054
  0.3231277574299617  0.8170185765394861  0.4987206976157173
  0.8953315577650595  0.9536910470675576  0.3711909404413427
  0.7705338678271452  0.0366369391898854  0.5975471688567192
  0.2500123460239574  0.9963681308507577  0.9187929198773245
  0.8648747338220969  0.0232485285931038  0.7993628502255798
  0.0960995296123024  0.7069132324179536  0.6259098913272352
  0.2509574153001687  0.8160002138729965  0.6709985117663531
  0.8620279247683352  0.5322484684106364  0.3853701238168940
  1.0751471663808572  0.3600152571250219  0.3722773605695590
  0.0900347373995813  0.0705061171082989  0.7829505571321845
  1.3355958477359069  0.1561182456897392  0.4394445349991414
  0.1527294491816664  0.1235135793800437  0.5401094161523309
  0.3039018874872735  -0.0206309866322037  0.6492383093707912
  0.8939009216124474  0.7769416863027043  0.8764600231774606
  0.3036864696338917  0.3730013328942174  0.3365889212010366
  0.7436261495206500  0.1535645440238791  0.3984251600562222
  0.6487760899435221  -0.1357950940981432  0.4592000792667729
  0.1419158997130762  1.0425945316353302  0.3882168214441932
  1.0092130339397358  0.4261335764753622  0.4634193792810959
