cyc-co-4k-10ps
1.000
11.0985002518  0.0000000000000000  0.0000000000000000
0.0000000000000000  14.4173002243  0.0000000000000000
0.0000000000000000  0.0000000000000000  26.7964000702
Pt  H  C  O  K  
96  170  6  81  4  
Direct
  0.0000000000000000  0.0000000000000000  0.0018699899937576
  0.1249999521128992  0.1666699702868031  0.0018699899937576
  0.2499999943280624  0.0000000000000000  0.0018699899937576
  0.3749999464409617  0.1666699702868031  0.0018699899937576
  0.4999999886561249  0.0000000000000000  0.0018699899937576
  0.6249999407690242  0.1666699702868031  0.0018699899937576
  0.7499999829841874  0.0000000000000000  0.0018699899937576
  0.8749999350970866  0.1666699702868031  0.0018699899937576
  0.0000000000000000  0.3333300219343480  0.0018699899937576
  0.1249999521128992  0.4999999922211510  0.0018699899937576
  0.2499999943280624  0.3333300219343480  0.0018699899937576
  0.3749999464409617  0.4999999922211510  0.0018699899937576
  0.4999999886561249  0.3333300219343480  0.0018699899937576
  0.6249999407690242  0.4999999922211510  0.0018699899937576
  0.7499999829841874  0.3333300219343480  0.0018699899937576
  0.8749999350970866  0.4999999922211510  0.0018699899937576
  0.0000000000000000  0.6666700318690679  0.0018699899937576
  0.1249999521128992  0.8333299447943854  0.0018699899937576
  0.2499999943280624  0.6666700318690679  0.0018699899937576
  0.3749999464409617  0.8333299447943854  0.0018699899937576
  0.4999999886561249  0.6666700318690679  0.0018699899937576
  0.6249999407690242  0.8333299447943854  0.0018699899937576
  0.7499999829841874  0.6666700318690679  0.0018699899937576
  0.8749999350970866  0.8333299447943854  0.0018699899937576
  0.0000000000000000  0.2222199683821562  0.0864100026098289
  0.1249999521128992  0.0555599860957249  0.0864100026098289
  0.2499999943280624  0.2222199683821562  0.0864100026098289
  0.3749999464409617  0.0555599860957249  0.0864100026098289
  0.4999999886561249  0.2222199683821562  0.0864100026098289
  0.6249999407690242  0.0555599860957249  0.0864100026098289
  0.7499999829841874  0.2222199683821562  0.0864100026098289
  0.8749999350970866  0.0555599860957249  0.0864100026098289
  0.0000000000000000  0.5555599783168760  0.0864100026098289
  0.1249999521128992  0.3888900080300730  0.0864100026098289
  0.2499999943280624  0.5555599783168760  0.0864100026098289
  0.3749999464409617  0.3888900080300730  0.0864100026098289
  0.4999999886561249  0.5555599783168760  0.0864100026098289
  0.6249999407690242  0.3888900080300730  0.0864100026098289
  0.7499999829841874  0.5555599783168760  0.0864100026098289
  0.8749999350970866  0.3888900080300730  0.0864100026098289
  0.0000000000000000  0.8888900002512240  0.0864100026098289
  0.1249999521128992  0.7222199606033073  0.0864100026098289
  0.2499999943280624  0.8888900002512240  0.0864100026098289
  0.3749999464409617  0.7222199606033073  0.0864100026098289
  0.4999999886561249  0.8888900002512240  0.0864100026098289
  0.6249999407690242  0.7222199606033073  0.0864100026098289
  0.7499999829841874  0.8888900002512240  0.0864100026098289
  0.8749999350970866  0.7222199606033073  0.0864100026098289
  0.2421733224328294  0.4505821040579328  0.1682838594619603
  0.4930395337615574  0.4552548926349821  0.1733090295276121
  0.1151631529127286  0.6199748225007212  0.1712623766542290
  0.8723741836046475  0.2798230677474761  0.1711009335876728
  -0.0057348579498097  0.4514644227446560  0.1705200023073807
  0.0053356413620296  0.1192613482447948  0.1721415616730480
  0.1237882747245224  0.9549669559210748  0.1710477195553302
  0.3702045260514934  0.9571273534306933  0.1736237984882898
  0.8714188801528788  0.6181443416555267  0.1726681345583249
  0.5024662282361583  0.1226328737415082  0.1720091381053036
  0.2512257279489446  0.1155530381473267  0.1694428999531694
  0.2397132328999602  0.7916012647682880  0.1736083752859598
  0.7535899884350173  0.1116248470353358  0.1731149328658824
  0.6265577811986079  0.2793269900360648  0.1707415553437754
  0.3647029128862285  0.6216409836214776  0.1731106624564356
  -0.0111966517710216  0.7870618878404430  0.1727471665176348
  0.7505586422678140  0.7826920660069617  0.1683335127100277
  0.6175309320634059  0.9456452009385795  0.1730229099824525
  0.8610041117447551  0.9478970866311087  0.1729244562016056
  0.7395354334355974  0.4529256088247304  0.1743144027803410
  0.3671690857094944  0.2885599291806377  0.1718888074716531
  0.1265805891451104  0.2835967816920812  0.1738749049310348
  0.4865251603543690  0.7865754470719988  0.1706572165708775
  0.6174849608611331  0.6208663941958389  0.1713616844266547
  0.3621685844128441  0.5174661167161916  0.2615678256869556
  0.1105683923646329  0.5191861637023952  0.2585486308366007
  -0.0102826356093916  0.0220179272236396  0.2549553344069403
  0.8704920930044683  0.1800407819367602  0.2640172961168659
  0.7330845172058673  0.3449884393970503  0.2570587149264259
  0.9795488822678371  0.6873333966506294  0.2622480632133490
  0.6193442473892075  0.8506850443558325  0.2555231834075575
  0.2369112626792579  0.6832396980952977  0.2577123742558176
  0.7364901622337953  0.6895235467625609  0.2631137950258024
  0.9869640417067580  0.3464998530432247  0.2582821714658906
  0.1204045958717054  0.8488130506968179  0.2570820327003941
  0.6212718205760919  0.1805455208397994  0.2622538216398390
  0.2452692268451780  0.0190360546239735  0.2602405027440670
  0.3652138943045584  0.1823246573425384  0.2538606340396092
  0.8601456011997420  0.5191715371359287  0.2582594088635111
  0.4925509247353856  0.0178907563889982  0.2584885442542321
  0.3629649405510139  0.8532021326966049  0.2623654171113264
  0.4856932959861628  0.3465945695628750  0.2540617269246939
  0.1187930580698209  0.1887007280124869  0.2553144941140199
  0.7443960844133050  0.0197092945682760  0.2604461629105655
  0.8644058259713125  0.8535265998872177  0.2589513727374428
  0.2386423692129433  0.3507105670642645  0.2608086339654295
  0.6141105750296848  0.5211808253486534  0.2583730851331600
  0.4882211185985423  0.6886798315932328  0.2555234600454633
  0.7488206866555797  0.7724605337571601  0.3424400175717899
  0.8363706240845047  0.7856276975289206  0.3843235945992926
  0.3404226420490677  0.8833387875654325  0.3969025596512009
  0.2783779245037112  -0.1603698685141489  0.4451998520677020
  0.7618909486647617  0.8052248364942166  0.7122220401136724
  0.6179665722121023  0.8160425316641576  0.7117191319034392
  0.6565636030704405  0.5506560040498469  0.8556777245611882
  0.6063439037457858  0.5747258904294829  0.9113887685219099
  0.1698511437790226  -0.0806840354228996  0.8167507456659887
  0.2789788033565921  -0.1374892493227693  0.8401051555180777
  -0.0841128655872758  0.6411739188811143  0.8780954819549527
  -0.0362560526801573  0.5688311097716758  0.9192183238745082
  0.1867298214606866  0.6955594797143715  0.7765462601911619
  0.1886656819294482  0.8007416275303735  0.7733013549064145
  0.8599927255623581  0.2060998233838381  0.4194258512395809
  0.7975457601908346  0.1321535452448073  0.4525215094465297
  0.7022907735066164  0.3128179492439593  0.8429837396188496
  0.7247149195401886  0.3150167445805903  0.9005493333388602
  0.7919242278410127  0.1456065531438238  0.8095004914829255
  0.8720612616673400  0.2199600143413100  0.8378808785949143
  0.8672904105073905  0.0816522878337408  0.8695810310659421
  0.8407685736986504  0.0279604804109274  0.9224653842509789
  0.4055876041152445  0.4322341839213911  0.7349033352394272
  0.4291702136806722  0.4760553191249951  0.6844546856649132
  0.6896471661618095  0.3031919256791529  0.4817341945851778
  0.6315830838011784  0.4000212024703130  0.5083773938406617
  0.8635102454266901  0.8359948513720569  0.5262620325549852
  0.9358564453440867  0.8187335285218501  0.4817008534013748
  0.5886773172204398  0.7017114146689137  0.5764464515283194
  0.6789579931646958  0.7903757658451108  0.5739296442399031
  0.5523072030030226  0.0261488188936084  0.5097175692674325
  0.4595524948222446  -0.0438997526272801  0.5226095676737476
  0.7584346218972079  0.6984015296656473  0.4923872747919277
  0.8052523779012885  0.6056340251334360  0.4707050163886383
  0.1677785781279771  0.2781918891610467  0.7004150425852302
  0.2096763992704855  0.3805320709527205  0.6929454427966155
  0.9904812261473918  0.4479917770120234  0.8001897212545969
  0.0548447199162139  0.3746199239159032  0.7688264756433096
  -0.0531384321322469  0.1949356212380917  0.3434720025372164
  1.0224279065596840  0.2668154531259871  0.3813618682408232
  0.4913019870333972  0.2102374162252119  0.9073302644200495
  0.4835994233211393  0.1176907026559741  0.8803515614373320
  0.1700758057823050  0.3404016653012635  0.9099683614634885
  0.2856318901363148  0.4102812813892968  0.9103925433599455
  0.4008044763686474  -0.0073381701534995  0.8874505315714414
  0.5410912281617541  -0.0258987692141321  0.8969094900000356
  0.1660562657194244  0.7321941158794546  0.5048902978443635
  0.0759096199473765  0.6772049066748239  0.4775530697845895
  0.3280546405005939  0.2812855025703607  0.3594612329180719
  0.4124532568945596  0.1943968591620334  0.3490017021950740
  0.4837459191235552  0.9788222070255996  0.3903535967852838
  0.4694608190827377  0.9101774089078543  0.3449154398048594
  0.9841342729103022  0.0991900853177546  0.6850084093091763
  0.8800276602431891  0.1432232862377156  0.6531155203479306
  0.9869295669226593  0.2778989978128536  0.9152799400272928
  0.0106082669846230  0.3230240475155338  0.8601719766691021
  0.6542099522971513  0.5268957728088670  0.5682947358303992
  0.6558663248684831  0.5675460819778609  0.5134871983569882
  0.4933583263839593  0.8523351667039752  0.5827785561414572
  0.3623126886308659  0.9017204924045482  0.6015061565312605
  0.2750292763569516  0.6222519384232063  0.6299433472435841
  0.2468023061814821  0.5254774981054287  0.6069996456609330
  0.3255335605920304  -0.0629910241426004  0.7643474596790168
  0.4106461029237565  0.0148122252278594  0.7528511750141753
  0.8760968794250398  0.2263492317999811  0.4986267079979551
  -0.0250619892588540  0.1750059354973656  0.5199529230530707
  0.6791604470502679  0.0183332010770299  0.4003532078971505
  0.6498996487052545  1.0320365459353833  0.3433572207459332
  0.8628003297154458  0.6175365662701441  0.7310829430848165
  0.8105899366394966  0.5390309091227461  0.7594616913535321
  0.7859175534987575  0.5495207389554562  0.6394838684154674
  0.8968075443063350  0.5009130550619881  0.6211797103675563
  0.3297934715284050  0.1975468814334330  0.4890968926484676
  0.4274737248963478  0.2728084335838936  0.4987230150202879
  0.7473876834804506  0.8347279597199558  0.6362423948118323
  0.8591658402632826  0.7945062342111388  0.6098410159494992
  0.7692182293292651  0.4428716188997868  0.8418505052134651
  0.8445964888526020  0.5337030688124963  0.8522374635351364
  0.7252624338585321  0.0603622812843417  0.5589676721485151
  0.6422948970915118  0.1407548629860434  0.5653791493002934
  0.1234205826303282  0.0367143091539318  0.5153699182472657
  -0.0172050580680062  1.0310401285981217  0.5247869232456583
  0.7840814952262269  0.4195089517665681  0.3331258796821425
  0.8220118774805072  0.4516116618231919  0.3854338592886560
  0.4054185983705543  0.7666087324914971  0.8948433581668431
  0.2840702556175257  0.7732916298024378  0.9260443913619621
  0.7662651862823286  0.9056779529493342  0.8828054011295197
  0.6994322678454705  0.8431017621879461  0.9265519446476411
  0.2420354055913398  0.6785146867797129  0.8598144225284376
  0.1166319547985830  0.6206343614401943  0.8535480572793707
  0.8478627317122280  -0.0362122368666529  0.4326702087939630
  0.7933332324042610  -0.0356428257791205  0.4844841010168984
  0.5287212376508530  0.3458627780252183  0.7923346575464655
  0.5521445969968906  0.2495131298671877  0.8260240345461746
  0.4094027883418820  0.4593781858781792  0.8158830051434153
  0.5050311914973326  0.5090863629675410  0.7729379376722155
  0.5186597554625826  0.1985587453173114  0.7644418952596684
  0.5860622266459009  0.1106090275079519  0.7406286800953810
  0.5495901691051219  0.6945516687945774  0.8581233205751423
  0.6085058780896715  0.8013156523874025  0.8616111523605744
  0.3083703836691749  0.1726376231872390  0.8691217958751044
  0.1750282442517356  0.1925467982986935  0.8852370235687017
  0.9323635400577430  0.3430552389249520  0.6381683559284299
  0.0187180969128065  0.3954698694066232  0.6708038727332615
  0.1641913106236544  0.1138282242977762  0.7484987881303229
  0.2154606858987250  0.1003140874712706  0.6931482853532934
  0.1029351906997269  0.4069347154824096  0.6031117076085428
  0.2073062272559618  0.3508880790852520  0.5951040764141338
  0.2698601191736921  0.5362920244574019  0.8609608985669920
  0.4171064599695988  0.5313020578977304  0.8822097683184634
  0.8869450798817162  0.2532489370753375  0.5858407400835179
  0.7736437998465100  0.2710763155790323  0.6196883186882521
  0.4551107452721641  0.3209465154509996  0.6721499195793119
  0.4830513832380647  0.2102409380426958  0.6829339865040839
  -0.0224447351487512  0.6075011987776825  0.4026932273451260
  0.0781281308760046  0.6827041523634425  0.4071280854077267
  0.4522589642042791  0.5556300455058978  0.5197652599420997
  0.3479028400863238  0.5924090998677034  0.5460665196618251
  0.4536744719975463  0.8327076556653238  0.7516196823691352
  0.5440801682390065  0.7841958368283156  0.7872357638688797
  -0.0101480029233440  0.8659000180185351  0.9223107853276479
  -0.0277615955317953  0.9422610089511112  0.8807005308129010
  0.6286722423300742  0.5960211815397092  0.7271488976039373
  0.5131954844868565  0.6558518150411269  0.7388313522426162
  0.8988491387187264  0.7559554110713658  0.7762584980149070
  0.9877557508206606  0.7352164086819972  0.7372879744832285
  0.3017612997717263  0.2316369406229900  0.5682412437532454
  0.3302890889970002  0.2326160561356300  0.6233383329828502
  0.1057863984739365  0.7603679319324335  0.3450912876496317
  0.1650634283314888  0.8121829004964436  0.3926861839252075
  0.6208395722370226  0.3016506210205632  0.5634585385255187
  0.5577168597077888  0.2522716193264672  0.6105838482160668
  0.3681514106049893  0.8089860989467111  0.5244152890009870
  0.3674810009792570  0.7112788532637979  0.4946630806031651
  0.9816381116208066  0.8651577216708484  0.3754042426835927
  0.8839112999712695  0.9355393022104371  0.3466679068555445
  0.8539734683127882  0.9484544318465782  0.5862029667771996
  0.9241861040401800  0.0327447152348471  0.6037358990057522
  0.2142038234503291  0.0567719558423595  0.9020714401253371
  0.1569825231492364  0.9508231852517711  0.9124236022319365
  0.6776416846753907  -0.0241456227160520  0.7319664496729394
  0.7627422184386636  0.0599859698587910  0.7218619297638971
  -0.0612617214375184  0.6456609417351551  0.6053357787167465
  0.0176834543539493  0.6999622182307697  0.5691311241863457
  0.1220460495804662  0.7135790081807432  0.6401919713789361
  0.1908029838496922  0.7279048704425196  0.6930203002138337
  0.8000183354827574  0.6435975124080846  0.3703468497970493
  0.8741983489099296  0.5802578287854292  0.3338846080615792
  1.1229044942336934  0.4141362956523919  0.3598944064962238
  0.9814076488698070  0.3900997738966811  0.3618636008306031
  0.0116047867890179  0.0802280870970875  0.7980848786469243
  0.1326302136418175  0.0907245669820618  0.8238326359535962
  0.3628521566818784  0.1432400049642629  0.4237242764869369
  1.4031756746299378  0.0643531461692265  0.4630557495332763
  0.1897539460035101  0.1281337902838667  0.6023450341768065
  0.1688438783245584  0.0198618435868705  0.6087542027647541
  0.3204035758636193  -0.0724023389650042  0.6793070127409894
  0.2341333289223974  0.8490073174011540  0.6553310310226658
  0.9619807976549294  0.7821405547617012  0.8596356997041981
  0.8285202663583905  0.7811600759286270  0.8532801655483473
  0.6329544951409702  0.4995638870140609  0.3914937336924789
  0.5573936347838251  0.6520793980730505  0.4164396098082556
  0.2054619401689132  0.5723019110813178  0.3472522795906498
  0.3997999933351679  0.6758545875375983  0.3443770092185792
  0.2542769983396902  0.5277612962845429  0.4017131253601132
  0.3168008758597594  0.6832120400529599  0.4030462761455327
  0.4418817876590679  0.4172739171693355  0.3997298691182011
  0.4687917615676203  0.5628315804454979  0.4400088962514135
  0.5834689261506081  0.5682215864307393  0.3414148655503230
  0.5146131264693800  0.3966952035347302  0.3355698193168858
  0.4675683347629223  0.4491235342929392  0.3611319500809264
  0.5484084795792895  0.5288559502804000  0.3729413125128569
  0.3447940463649015  0.4747979613036294  0.3390995707779855
  0.4898598670679178  0.5981288098353859  0.4067930303452378
  0.2874794807778228  0.5543597827372047  0.3667516057438326
  0.3719303806863927  0.6369401625432168  0.3790689424396322
  0.7612943260896596  0.7524892766757060  0.3790407596166402
  0.2556579982272664  -0.1291318696868153  0.4137143487952580
  0.6929449099352589  0.8370308158846654  0.6946700966635129
  0.5855415834266459  0.5776946635863224  0.8757674733778090
  0.2493724244094268  -0.1037987739394987  0.8104449143394921
  -0.0408245795846620  0.5820564528479492  0.8833847048143181
  0.1602776493437931  0.7449931585871165  0.7541302566785111
  0.7945145278498212  0.1985817155263552  0.4471943484948335
  0.7622820722311459  0.3281274017812644  0.8669426425131967
  0.8780348751552748  0.1570886895094787  0.8221329875425902
  0.8403482195702408  0.0194752251206333  0.8841251424345962
  0.3953323596211480  0.4201373170540392  0.6970738647454663
  0.6202018740400205  0.3366755240220901  0.4965099689340732
  0.8526954470866591  0.8310310766648215  0.4924810560458804
  0.6083752826698295  0.7608713389356231  0.5571547104121352
  0.4991180768231804  -0.0183111134604133  0.4907474745581319
  0.7336946854219648  0.6436867609206343  0.4757914064724905
  0.1397271219369023  0.3423035428909238  0.7030560101112637
  0.0414442524993771  0.3943667058425327  0.8034048114560530
  0.9792909823953263  0.2030989224712610  0.3772298264475252
  0.4663717204007389  0.1876180527503257  0.8744687509931295
  0.2552572717778275  0.3460506147462318  0.9209307165272448
  0.4792895659156541  0.0105636609511192  0.8772984329691171
  0.0818533686704799  0.7254393123181152  0.5053202613532608
  0.3847456239690996  0.2370985609731914  0.3760468328059557
  0.4815046943962803  0.9128662337777603  0.3802630349899813
  0.8979547759782841  0.0915213029327108  0.6763957439699743
  1.0398058724221182  0.2770649145439396  0.8864381793514069
  0.6111419511118129  0.5253325468269308  0.5376640931302705
  0.4138000627116407  0.8816187559565878  0.5716936027886995
  0.3104248020935292  0.5749496785763484  0.6078797506503426
  0.3850335055411598  -0.0430641516886456  0.7390647577442363
  0.9283447445549211  0.2299855931633684  0.5281542447539062
  0.6234296117241450  0.0545471900400953  0.3767301805523705
  0.8075529616126651  0.5613772516548232  0.7238786591625636
  0.8358202597955091  0.5504161905309349  0.6091361506112255
  0.3383178427725879  0.2621089084994397  0.5028245222306622
  0.7928172215946860  0.8404231332769028  0.6040428153668476
  0.7730814569300436  0.5101659923543083  0.8316882987683226
  0.6507587507986616  0.0836046245654514  0.5460573564011126
  0.0464397770515353  1.0493404568423308  0.4965370866811622
  0.7813814612198178  0.3989954452016204  0.3696096062140215
  0.3159665473478058  0.7727839233396382  0.8897244308094125
  0.7197697322126396  0.8445751688223031  0.8873363986471685
  0.1944380826904979  0.6309998211639308  0.8370110213066616
  0.7921189050542379  0.0006278689254693  0.4549037322015554
  0.5767425295198658  0.2886512150857325  0.7980838112460822
  0.4630918710720788  0.4471235218876068  0.7862165625310712
  0.5113327596563869  0.1428800345454425  0.7410790797187774
  0.5361824907590439  0.7594176923669904  0.8492141429477529
  0.2249480284595293  0.1460077495127702  0.8654198426522790
  -0.0290255806002035  0.4053975182779950  0.6415978950552995
  0.1772548711417961  0.1439792504217471  0.7136223039924658
  0.1778202189597575  0.4109277667891285  0.5868815273507231
  0.3384937636588071  0.4967878605335592  0.8730033906911063
  0.8575160520230174  0.2589099305158735  0.6215756486044912
  0.4568420256041066  0.2569463727582091  0.6538263564285274
  0.0607649766093958  0.6173625769267181  0.4181161824255588
  0.3754178002225343  0.5863618090682060  0.5105301201490046
  0.5190669821686654  0.7828707123596026  0.7511169878443218
  0.0274878048726018  0.8880511830863005  0.8898414137769676
  0.5455019550067673  0.5907495225940281  0.7324835802861449
  0.9019244402933212  0.7437862760203879  0.7403461287235488
  0.2626579386550192  0.2367424161665968  0.5993562472878891
  0.0869588942382980  0.7816062543670256  0.3802385067175911
  0.6348793274530238  0.2610694390102256  0.5928113137841144
  0.3409251989507622  0.7762005109485288  0.4938798807910627
  0.9232312685525400  0.9193712626625669  0.3780482420198614
  0.8936089301787873  0.0076645346618885  0.5730403111825682
  0.2295985864925058  0.9944538443289660  0.9202798903022925
  0.7013736297242077  0.0359818436343332  0.7440030749791383
  -0.0228043476557972  0.7077544183273348  0.6013019911401756
  0.2005640938683571  0.7332982093888045  0.6553726506841531
  0.8385065641901199  0.5842028771450476  0.3689654552700596
  1.0560410718825839  0.3934995205161894  0.3851682668515617
  0.0953772303450028  0.0631480587790981  0.7939871761379178
  1.3389022678347893  0.1039255913513272  0.4526049755723578
  0.1281511966330160  0.0803540463801535  0.6068236379812579
  0.2746068565620573  -0.0893795432537416  0.6482951247626427
  0.8985762986474287  0.7442646557581126  0.8437076047107718
  0.2656139010513510  0.3988530646610154  0.3374087400252984
  0.6377739805566979  0.2437642657032645  0.3699277869986666
  0.5982769334823506  -0.1877114413514544  0.4569600147415849
  0.1279671825812374  1.0479073660847995  0.3983253475630144
  1.1632760637191590  0.3986230846544667  0.4828309337823464
