cyc-co-4k-10ps
1.000
11.0985002518  0.0000000000000000  0.0000000000000000
0.0000000000000000  14.4173002243  0.0000000000000000
0.0000000000000000  0.0000000000000000  26.7964000702
Pt  H  C  O  K  
96  170  6  81  4  
Direct
  0.0000000000000000  0.0000000000000000  0.0018699899937576
  0.1249999521128992  0.1666699702868031  0.0018699899937576
  0.2499999943280624  0.0000000000000000  0.0018699899937576
  0.3749999464409617  0.1666699702868031  0.0018699899937576
  0.4999999886561249  0.0000000000000000  0.0018699899937576
  0.6249999407690242  0.1666699702868031  0.0018699899937576
  0.7499999829841874  0.0000000000000000  0.0018699899937576
  0.8749999350970866  0.1666699702868031  0.0018699899937576
  0.0000000000000000  0.3333300219343480  0.0018699899937576
  0.1249999521128992  0.4999999922211510  0.0018699899937576
  0.2499999943280624  0.3333300219343480  0.0018699899937576
  0.3749999464409617  0.4999999922211510  0.0018699899937576
  0.4999999886561249  0.3333300219343480  0.0018699899937576
  0.6249999407690242  0.4999999922211510  0.0018699899937576
  0.7499999829841874  0.3333300219343480  0.0018699899937576
  0.8749999350970866  0.4999999922211510  0.0018699899937576
  0.0000000000000000  0.6666700318690679  0.0018699899937576
  0.1249999521128992  0.8333299447943854  0.0018699899937576
  0.2499999943280624  0.6666700318690679  0.0018699899937576
  0.3749999464409617  0.8333299447943854  0.0018699899937576
  0.4999999886561249  0.6666700318690679  0.0018699899937576
  0.6249999407690242  0.8333299447943854  0.0018699899937576
  0.7499999829841874  0.6666700318690679  0.0018699899937576
  0.8749999350970866  0.8333299447943854  0.0018699899937576
  0.0000000000000000  0.2222199683821562  0.0864100026098289
  0.1249999521128992  0.0555599860957249  0.0864100026098289
  0.2499999943280624  0.2222199683821562  0.0864100026098289
  0.3749999464409617  0.0555599860957249  0.0864100026098289
  0.4999999886561249  0.2222199683821562  0.0864100026098289
  0.6249999407690242  0.0555599860957249  0.0864100026098289
  0.7499999829841874  0.2222199683821562  0.0864100026098289
  0.8749999350970866  0.0555599860957249  0.0864100026098289
  0.0000000000000000  0.5555599783168760  0.0864100026098289
  0.1249999521128992  0.3888900080300730  0.0864100026098289
  0.2499999943280624  0.5555599783168760  0.0864100026098289
  0.3749999464409617  0.3888900080300730  0.0864100026098289
  0.4999999886561249  0.5555599783168760  0.0864100026098289
  0.6249999407690242  0.3888900080300730  0.0864100026098289
  0.7499999829841874  0.5555599783168760  0.0864100026098289
  0.8749999350970866  0.3888900080300730  0.0864100026098289
  0.0000000000000000  0.8888900002512240  0.0864100026098289
  0.1249999521128992  0.7222199606033073  0.0864100026098289
  0.2499999943280624  0.8888900002512240  0.0864100026098289
  0.3749999464409617  0.7222199606033073  0.0864100026098289
  0.4999999886561249  0.8888900002512240  0.0864100026098289
  0.6249999407690242  0.7222199606033073  0.0864100026098289
  0.7499999829841874  0.8888900002512240  0.0864100026098289
  0.8749999350970866  0.7222199606033073  0.0864100026098289
  0.2546682388498029  0.4533129395879886  0.1700507372618127
  0.4976222898408530  0.4540618964267871  0.1719251945608683
  0.1261933246316638  0.6158464550620185  0.1697815127472846
  0.8762301851480144  0.2881511147834688  0.1705310250342853
  -0.0000028240031796  0.4548547458384081  0.1724687167639196
  -0.0058676557392913  0.1165587790401716  0.1708364244117599
  0.1279735004348581  0.9499681191292511  0.1730944822083850
  0.3788322159580166  0.9554616443779317  0.1720810307847290
  0.8635510670052566  0.6208595920762691  0.1746471923444853
  0.4987942573774479  0.1218670566309378  0.1740398294540462
  0.2467839955903761  0.1116651094694233  0.1725048782146168
  0.2497794640451891  0.7829077674872401  0.1698785146390757
  0.7528485875508154  0.1246961977645359  0.1688426309857760
  0.6303462781888369  0.2919468918255368  0.1730033331811425
  0.3751591253444098  0.6217425425595048  0.1717584117807825
  -0.0027683967565813  0.7841771017533850  0.1704296052916004
  0.7466401586427002  0.7906196633672053  0.1692651163259836
  0.6261517267410006  0.9584107642851620  0.1773422870479084
  0.8784806904985865  0.9549729952834135  0.1717907424183954
  0.7425201434277989  0.4524472269923001  0.1729620018531619
  0.3770432485165121  0.2877393694006547  0.1701746135881589
  0.1337440428006713  0.2862203515499279  0.1723337138198479
  0.4949609006504342  0.7891875629684635  0.1705802541656814
  0.6239745720127227  0.6198951706600759  0.1721240932370351
  0.3655825678646942  0.5243246320319328  0.2632315716148865
  0.1158583827298157  0.5188419754755568  0.2568853037709040
  0.0033110386418237  0.0199469159222536  0.2586253353638736
  0.8747131446454232  0.1873705437337634  0.2562128693001245
  0.7580885686005584  0.3519682800284044  0.2620564886590599
  1.0081512040408636  0.6877764924938604  0.2576956054137783
  0.6253384143929167  0.8465402010446500  0.2569206184063595
  0.2447101941957898  0.6868354826592220  0.2589851067501323
  0.7530536234789473  0.6837667436504143  0.2604689619282843
  1.0016394374453474  0.3528113115260432  0.2580521244004695
  0.1245129846598757  0.8544103914849347  0.2572648964502696
  0.6268735163989051  0.1923904081864726  0.2577190979425639
  0.2500601779641255  0.0185085957737248  0.2640532165575773
  0.3816790850198861  0.1875272673411550  0.2600761008136413
  0.8738858388300712  0.5167235222752468  0.2555844334820339
  0.4974919114233037  0.0141125980894165  0.2610823424516733
  0.3704455358942032  0.8522996538484451  0.2558224924370908
  0.4933133720397975  0.3562796005414665  0.2571427385935641
  0.1241100631210601  0.1872795880361225  0.2558604999939765
  0.7556506559739753  0.0186980562037293  0.2584699900716292
  0.8775934611453770  0.8450361892142345  0.2590823042913384
  0.2485509565990781  0.3556468256003840  0.2565386144180184
  0.6182717358579246  0.5180194274315054  0.2572516880603712
  0.4878354458226818  0.6878200811609633  0.2640626880350644
  0.6615798746419955  0.7350947308315879  0.3520019261426708
  0.7963048564482079  0.7544636495927672  0.3587136692883484
  0.3290739066485732  0.8425561278890402  0.4050264516079453
  0.2863130344376608  -0.1754740453442164  0.4611584467475734
  0.7898242228158995  0.7703409417652769  0.7540446622444084
  0.6469483555253775  0.8185366055573678  0.7575202521802211
  0.6245661448334680  0.5674304566822740  0.8782678196976309
  0.5580631106167238  0.5823601510322056  0.9305783729408950
  0.1750258023362168  -0.0486390809784255  0.8204028945010418
  0.2555557125423320  -0.1339109042236608  0.8360917628974921
  -0.0399630220423761  0.5837140794582156  0.9098412702799309
  -0.0267747650275365  0.4891791763837273  0.8757673310601847
  0.1609389113461803  0.7020649225879213  0.7879159001839167
  0.1567142635436634  0.8078776976613535  0.7699369176549994
  0.7941963914872594  0.1088897787710613  0.4923433549408688
  0.6945528189765824  0.1468509532479265  0.5262620790015227
  0.6994141157352367  0.2820244960319828  0.8743224158216240
  0.7309418201512681  0.3443211445325247  0.9197775334870212
  0.7032850693528693  0.2383240672555827  0.7857682132166661
  0.8409391211921906  0.2583108397869836  0.7771664154081488
  0.8276698599894335  0.1391266965724430  0.8374646146053195
  0.8473808424137949  0.1234154548090082  0.8965100076862936
  0.3358797292539968  0.4433956743874616  0.7151533876414828
  0.3127930699859174  0.4546759444706142  0.6564894796283992
  0.5790271948822771  0.3286939340981980  0.5414139989548125
  0.6110969640334986  0.2956560742777318  0.4829853738559816
  0.7551624264765600  0.6666222160443798  0.5255152247917194
  0.8415989795004168  0.6489381632859946  0.4758773048951879
  0.5359574224936632  0.7494495632606981  0.5752703067507585
  0.6224107668312806  0.8257781670408437  0.5978385614161503
  0.5172405801828014  0.0429649646995594  0.5321277150492093
  0.4054147516255859  -0.0182930446128519  0.5239606321079684
  0.7202512553715126  0.5329146243795475  0.4864923816090309
  0.6908983408507273  0.4250937266236727  0.4862743100888008
  0.1401942793619931  0.2355118158583576  0.6965495609000545
  0.1980611960110096  0.3381362106397209  0.6994796381415611
  0.9208262271060013  0.3993554873467685  0.7702207057526573
  0.0310406406346774  0.3334888120382082  0.7551727043105371
  0.0814754007374415  0.1803703861363031  0.3361975220850164
  1.0696654597881008  0.2532435362236671  0.3760207046059674
  0.5276991105217249  0.1841305369382284  0.9154582962649769
  0.5373694882362808  0.1175738402910523  0.8677527363781611
  0.1407504196295936  0.3530616764101646  0.9134871172013107
  0.2663456047694893  0.3857156682932293  0.8986986787296559
  0.4136072045279727  -0.0145699226576381  0.8874235564442562
  0.5260505580610415  -0.0475271334327276  0.8507823600175799
  0.1573522087740428  0.6954256674492466  0.5414041991682996
  0.0646456596587127  0.6583627638413040  0.5082857395403241
  0.4757585802319222  0.2188237326557564  0.3456397263041338
  0.5315594805111792  0.1269881853063022  0.3608675334734180
  0.4514084982687155  0.8747340743826617  0.3391389097338616
  0.4622702651079287  0.7804800446781524  0.3567804378033621
  0.9967287139274416  0.1162192959036721  0.6635307527921713
  0.9238929515487457  0.1812580726379984  0.6259041151185059
  0.9313842993987866  0.3407936988173911  0.8890022235857071
  0.0222107693929205  0.3612436066581856  0.8463631163322427
  0.7243657417222783  0.5364582655332421  0.6196648839284205
  0.7012944523957343  0.5084384121130353  0.5632093617934761
  0.4328275468769675  0.8708630963332530  0.5766798567799061
  0.3080571266055067  0.9091927898058623  0.6018579755470724
  0.2135152058509592  0.6080099161995225  0.6406644193707124
  0.2378633538051095  0.5339943098517113  0.5962338268403362
  0.3287851590676124  -0.0339152611232899  0.7667041677940830
  0.4446571585471304  0.0151055474889075  0.7372775738660087
  1.0787245054806658  0.1912487060269895  0.4597289080259673
  0.0588506941912326  0.1817411715324960  0.5168331960046241
  0.7345959817388594  -0.0458271382867092  0.3716928251969356
  0.5992346008661285  0.9726447245833677  0.3606303862303797
  0.8651747528268682  0.5717292609893063  0.7750431459521417
  0.7846169707287873  0.4851348286769547  0.7820669236314916
  0.8469469839112266  0.5290822937253745  0.6949331871003451
  0.9050834179754015  0.4863324790852396  0.6359295946193422
  0.2791549626714223  0.2401922866642762  0.4861437488980874
  0.4009765150096061  0.3037165669838579  0.4961259310680524
  0.7469456562075131  0.8272882964382536  0.6836563066646014
  0.8088270239255174  0.7853979427240358  0.6328167998378984
  0.7388093728132449  0.4429639574013986  0.8647729634276595
  0.8015254136212913  0.5387450780631241  0.8565192550332265
  0.6660122814072268  0.0606227514792865  0.5870366054652875
  0.5674344926269311  0.1257155172121000  0.6047253132677629
  0.1171937183034304  0.0047753829308457  0.5235551435135477
  0.1206754526750390  0.8965258666469622  0.5098841831405013
  0.7097251705898276  0.3517950179223834  0.3555828328371753
  0.7849120899364000  0.4238155451185849  0.3831284563599731
  0.3548940773471794  0.7611401560886063  0.8832319155594452
  0.2586962740604836  0.7905113435725348  0.9221638983544094
  0.7222179614673619  0.9638223525704984  0.8572446493641468
  0.7163298977274525  0.9321740898096975  0.9122830267669437
  0.2059100675633504  0.6746369107515930  0.8664005929930393
  0.0953524097571981  0.6164521544623321  0.8442755289155206
  0.9005587755407758  -0.0532911496845314  0.4931471012740918
  0.8236645774114754  -0.0208930274402068  0.5381995926885099
  0.5492773762573281  0.3424076603454157  0.7791592493507717
  0.5252945529964257  0.2738729917162220  0.8230287673726090
  0.3999626567724830  0.4631983425887379  0.8048177858630932
  0.4499735876646979  0.5094502624506881  0.7562206034621558
  0.5130421153233315  0.1538941586483974  0.7631263173757868
  0.6193806313591887  0.0858926327283390  0.7575125178614522
  0.5284739873974186  0.6964729241592478  0.8818073605371290
  0.5365457800691780  0.8003379378166647  0.9036256666964770
  0.3556005227967552  0.1749899420591758  0.8734104069422232
  0.2474563053917649  0.2349952318041915  0.8743963596944879
  0.9565267670628066  0.3476315695120611  0.6032368112639300
  0.0222402811100507  0.3569593340871052  0.6516494237753657
  0.1155404444931221  0.0837201241578920  0.7406380906542374
  0.1452615759808204  0.0496095537494938  0.6852934060393338
  0.1055437954339841  0.4232644534733815  0.5809735286686144
  0.2075415118566515  0.3956700443599848  0.5434590599576500
  0.2739579961451887  0.5410788241582002  0.8581990850097186
  0.3990582702632903  0.5163281635040953  0.8813455007250803
  0.8446471426875567  0.2334412614871803  0.5374565965006697
  0.7877036761234593  0.2914073467318660  0.5795631949595715
  0.4267210814120495  0.3151839495054025  0.6784472607728278
  0.5030638336827974  0.2276786359257061  0.6925044903713254
  -0.0634665632760390  0.5774740435013888  0.4151077049513904
  0.0142390189948745  0.6709513727400837  0.4265031310011598
  0.5303947834704323  0.5847325360396533  0.5855981315509177
  0.4061559682596682  0.6234931571549794  0.6029935368956223
  0.4589789695390454  0.8524076327263057  0.7555528991864648
  0.4819775381842641  0.7897860308831053  0.8053694922811669
  -0.0012255768159120  0.8676875183132549  0.8961230865710379
  -0.0590434589658834  0.9648513428924864  0.8836420476171549
  0.6654180670043456  0.5713343134740703  0.7390662173320875
  0.5526877916144716  0.6381746629783263  0.7439455785767872
  0.8487454081529850  0.7075565977468080  0.8243390217242390
  0.9668772544794617  0.7039166299106975  0.7882573836360232
  0.3325343704976209  0.2336694414618510  0.5601124492834898
  0.3493046736446441  0.1952763639932242  0.6198442813171520
  0.0681778361159455  0.7493417746195640  0.3562006560394200
  0.1403014831618765  0.7871163872049408  0.4038916946995418
  0.6612193147006331  0.3926264707839806  0.6020003930766661
  0.5652183692010645  0.3251573123932508  0.6243999776151692
  0.3104684831124959  0.8007963268213454  0.5421727992058436
  0.3552640294224010  0.6979001597636862  0.5290691589414751
  0.9447082219148956  0.8584890289888475  0.3882336852243583
  0.9287163995809533  0.9217042145867634  0.3444657192689505
  0.7702964959804786  0.9346240637819718  0.6194295896544328
  0.8450774029291804  0.0361390083506635  0.6137546977472503
  0.2502666892537593  0.0750454647796260  0.9083036644787017
  0.1810793213050617  0.9761797976072407  0.9062566735972288
  0.7551375334104941  -0.0494798891818621  0.7614249683035023
  0.8182133054443294  0.0495287427389805  0.7713985537328828
  -0.0937057101955131  0.6371197642411573  0.6354127078075423
  -0.0193369991738472  0.6874816108978709  0.5918254543018411
  0.0788081327527244  0.7095690568097814  0.6610082170962227
  0.1629337123010579  0.7064632964591347  0.7082177368110312
  0.7924863565934076  0.6027434908481224  0.3758731494198364
  0.8574228743975240  0.5358441292412700  0.3409373958242971
  1.1003830907080718  0.3851107338211498  0.3591040474388685
  0.9671167187619957  0.3706655950600811  0.3432843083922259
  0.0372411374350301  0.0936439357088821  0.8337995997957661
  0.1732167508748049  0.1119337082181316  0.8306726867410091
  0.3789155863935716  0.1497722457676600  0.4188144323080423
  1.3699157216520450  0.0863953421876166  0.4685789171010196
  0.2143258845729371  0.1263730902495277  0.5629663802928662
  0.0802115237827399  0.1064126085696803  0.5820272798189938
  0.2994382085418263  -0.0544441961385396  0.6841331171341618
  0.1963801369871137  0.8758014090403713  0.6637163776256180
  0.7885585066577436  0.7157023373008792  0.9162919491788563
  0.7845812601290658  0.8107692710247031  0.8834524417452210
  0.5997724484099020  0.5057304004053929  0.4040985976561134
  0.4959485142875311  0.6641996140692105  0.4181691692781316
  0.1624845103289994  0.5700701847941888  0.3568035833974858
  0.3431640958409948  0.6601930198108319  0.3569516705058139
  0.2152124206072453  0.5041313495192122  0.4072799955109248
  0.2741887557561176  0.6761461425260222  0.4157808272048554
  0.4238408444904154  0.4090783405730427  0.3967718389353277
  0.4406974356834153  0.5697402907345517  0.4537131786676321
  0.5541995034871888  0.5755565623592950  0.3496883142568360
  0.4891568620020996  0.4056350494417165  0.3411499657995579
  0.4407286889691864  0.4553778103222349  0.3659555724877192
  0.5192668019686101  0.5351048329074088  0.3828566257341832
  0.3244866651794618  0.4752544361843362  0.3410943298038235
  0.4437365632803652  0.6002512254627185  0.4165444936505865
  0.2468917540868276  0.5425441525464093  0.3743838869593771
  0.3233164119555730  0.6255069490541774  0.3916307128049858
  0.7241601421324031  0.7270060553940434  0.3774706393807213
  0.2559149495391824  -0.1547011182607381  0.4273218142251201
  0.7336640896754860  0.8209434189246524  0.7434184838303661
  0.5455214157082224  0.5878580158034755  0.8933710196177603
  0.2304436213519211  -0.0966474215575720  0.8069765668616025
  -0.0389102171466781  0.5593844750286158  0.8756660704172292
  0.1324606583904497  0.7441651679914930  0.7615525845874449
  0.7539499516200749  0.1690718902275166  0.4979501207827880
  0.7586170208749141  0.3277457005463325  0.8851588827290922
  0.7816167782122715  0.2088199750204046  0.7784738424434303
  0.8762460551841458  0.1019912368490193  0.8636281794634093
  0.3142099087608186  0.4097785720409970  0.6854877063105030
  0.5586829632584250  0.3348064757688962  0.5027267947637958
  0.7555320578327727  0.6545712638413341  0.4908924393925808
  0.5619969122754586  0.8190430707267408  0.5716968399623412
  0.4737807935218269  0.0125010242136891  0.5048910980861849
  0.7450847927636752  0.4683034197845327  0.5007515964997998
  0.1214902383843545  0.3000829840047295  0.7003030554193371
  -0.0308899201983978  0.3451549592906954  0.7820107205819754
  1.0606081433381871  0.1868689046968090  0.3721227047915759
  0.5315943617736216  0.1831216213664015  0.8787528107959111
  0.2241498435877884  0.3370147476855994  0.9177641714660534
  0.4824967216206987  0.0052116541121449  0.8659817908789270
  0.0803107964840061  0.6624760889907690  0.5436902998512091
  0.5062758599918672  0.1852533946403046  0.3758622337073066
  0.4590895965221642  0.8393848152862177  0.3722464547054193
  0.9501844005895902  0.1144835931707969  0.6330312130756821
  1.0067433097267229  0.3746874379084578  0.8825345097642249
  0.6572319581843485  0.5213137727014989  0.5964642647828891
  0.3468346174498395  0.8922366001866737  0.5703673259937981
  0.2740064016763696  0.5655065067354421  0.6236504313571875
  0.3824277429116272  -0.0368802632134836  0.7370146654834817
  1.0348511248569163  0.2209841163347688  0.4875473167393448
  0.6640441541824283  -0.0167625918819856  0.3875534697083842
  0.8375774379599046  0.5124761938748302  0.7570648464701992
  0.8508353690912874  0.5330052475253289  0.6564015692600725
  0.3129113812325011  0.2962287091311064  0.5005010076377734
  0.7574150293177362  0.8365804237932908  0.6463201932732876
  0.7268527974391553  0.5082334584910653  0.8517852479700510
  0.6074677754867427  0.1056083185972446  0.5736669196208662
  0.0755100073150948  0.9528546913620922  0.5029136559722747
  0.7477506130753160  0.3622790647791754  0.3890830631945474
  0.2689297469462981  0.7781978627933260  0.8869917465231590
  0.6993823339726565  0.9103736054325845  0.8781571142150949
  0.1786971987929941  0.6322833752699075  0.8388403240104420
  0.8261177591551603  -0.0202496398603071  0.4993770079318018
  0.5625391037394831  0.2781878658696470  0.7882625675860925
  0.4248372826531488  0.4519433154147527  0.7695165179233008
  0.5357752845151852  0.0966671062624464  0.7487164094408244
  0.4999162051197098  0.7641648593840610  0.8760451183181932
  0.2755686808768578  0.1756689136660444  0.8621677287051926
  -0.0035176820123663  0.3980024520630111  0.6218889366796808
  0.1048807287463200  0.0953659609642176  0.7060818901655839
  0.1518744794844354  0.4435032995930035  0.5508712266434610
  0.3279674522428973  0.4842629882904436  0.8646961206056908
  0.8624907623755305  0.2627790761764445  0.5713831595135503
  0.4636880229799843  0.2591700034381034  0.6634518642140615
  -0.0235786884951017  0.6151726598889371  0.4453211757339961
  0.4790046690441613  0.6416732768876755  0.5834876645160979
  0.5087294367078369  0.7976925436092447  0.7683693912525738
  0.0180277359787914  0.9326177627443304  0.8890397681736877
  0.5834593441352378  0.5830639908178887  0.7277992079573561
  0.8766667284187338  0.6923058900706643  0.7898216742903718
  0.3371728872550225  0.1798311287941486  0.5826024068681357
  0.0595465795923928  0.7655782724560628  0.3907259424426803
  0.6330821089507523  0.3296479298523281  0.5978313024112284
  0.2888781126062523  0.7419591783744915  0.5217587265032817
  0.8892341540019677  0.9092652606349180  0.3765347314627062
  0.7738078725012549  -0.0039230979392847  0.6020328310309331
  0.2547041985372332  1.0079526193126471  0.9155758722487563
  0.7446364802271057  0.0168006570877774  0.7749511990826539
  -0.0738257270902088  0.7026120851063729  0.6226368392691143
  0.1614090219180257  0.7038802848119725  0.6696205167071935
  0.8356602878659943  0.5438169030138701  0.3772006348323101
  1.0195665440711035  0.3770280662906789  0.3738539691359828
  0.1048361320901258  0.0797168849590078  0.8127694764686145
  1.3233574762786491  0.1274638131140967  0.4459667957820129
  0.1326468109473832  0.1001281925631877  0.5542046516171886
  0.2399547664981204  -0.0665004718694863  0.6558141944426059
  0.8196658794709313  0.7471100513149629  0.8858804171982503
  0.2615070164393867  0.3930244060499973  0.3338541165254825
  0.7770977549873211  0.1672249106622913  0.3859603765470579
  0.6379384887117258  -0.1336214399526063  0.4642591122355619
  0.1368705859923401  1.0130469249494409  0.3867505744223145
  0.9788778407008657  0.4278946638707127  0.4728202954093839
