cyc-co-4k-10ps
1.000
11.0985002518  0.0000000000000000  0.0000000000000000
0.0000000000000000  14.4173002243  0.0000000000000000
0.0000000000000000  0.0000000000000000  26.7964000702
Pt  H  C  O  K  
96  170  6  81  4  
Direct
  0.0000000000000000  0.0000000000000000  0.0018699899937576
  0.1249999521128992  0.1666699702868031  0.0018699899937576
  0.2499999943280624  0.0000000000000000  0.0018699899937576
  0.3749999464409617  0.1666699702868031  0.0018699899937576
  0.4999999886561249  0.0000000000000000  0.0018699899937576
  0.6249999407690242  0.1666699702868031  0.0018699899937576
  0.7499999829841874  0.0000000000000000  0.0018699899937576
  0.8749999350970866  0.1666699702868031  0.0018699899937576
  0.0000000000000000  0.3333300219343480  0.0018699899937576
  0.1249999521128992  0.4999999922211510  0.0018699899937576
  0.2499999943280624  0.3333300219343480  0.0018699899937576
  0.3749999464409617  0.4999999922211510  0.0018699899937576
  0.4999999886561249  0.3333300219343480  0.0018699899937576
  0.6249999407690242  0.4999999922211510  0.0018699899937576
  0.7499999829841874  0.3333300219343480  0.0018699899937576
  0.8749999350970866  0.4999999922211510  0.0018699899937576
  0.0000000000000000  0.6666700318690679  0.0018699899937576
  0.1249999521128992  0.8333299447943854  0.0018699899937576
  0.2499999943280624  0.6666700318690679  0.0018699899937576
  0.3749999464409617  0.8333299447943854  0.0018699899937576
  0.4999999886561249  0.6666700318690679  0.0018699899937576
  0.6249999407690242  0.8333299447943854  0.0018699899937576
  0.7499999829841874  0.6666700318690679  0.0018699899937576
  0.8749999350970866  0.8333299447943854  0.0018699899937576
  0.0000000000000000  0.2222199683821562  0.0864100026098289
  0.1249999521128992  0.0555599860957249  0.0864100026098289
  0.2499999943280624  0.2222199683821562  0.0864100026098289
  0.3749999464409617  0.0555599860957249  0.0864100026098289
  0.4999999886561249  0.2222199683821562  0.0864100026098289
  0.6249999407690242  0.0555599860957249  0.0864100026098289
  0.7499999829841874  0.2222199683821562  0.0864100026098289
  0.8749999350970866  0.0555599860957249  0.0864100026098289
  0.0000000000000000  0.5555599783168760  0.0864100026098289
  0.1249999521128992  0.3888900080300730  0.0864100026098289
  0.2499999943280624  0.5555599783168760  0.0864100026098289
  0.3749999464409617  0.3888900080300730  0.0864100026098289
  0.4999999886561249  0.5555599783168760  0.0864100026098289
  0.6249999407690242  0.3888900080300730  0.0864100026098289
  0.7499999829841874  0.5555599783168760  0.0864100026098289
  0.8749999350970866  0.3888900080300730  0.0864100026098289
  0.0000000000000000  0.8888900002512240  0.0864100026098289
  0.1249999521128992  0.7222199606033073  0.0864100026098289
  0.2499999943280624  0.8888900002512240  0.0864100026098289
  0.3749999464409617  0.7222199606033073  0.0864100026098289
  0.4999999886561249  0.8888900002512240  0.0864100026098289
  0.6249999407690242  0.7222199606033073  0.0864100026098289
  0.7499999829841874  0.8888900002512240  0.0864100026098289
  0.8749999350970866  0.7222199606033073  0.0864100026098289
  0.2455634360109138  0.4574099368052930  0.1725403169525634
  0.4921079016612361  0.4542083129241311  0.1717084539507571
  0.1201130952971593  0.6183443845869444  0.1759682225615020
  0.8774223598562912  0.2831180437250125  0.1692318138227496
  -0.0058585445082505  0.4499746566049596  0.1686417919631498
  0.0047744528718109  0.1143019656566811  0.1691920450964577
  0.1285366690304516  0.9487399865784594  0.1728404586611112
  0.3712722101287252  0.9473862025761602  0.1731433208731523
  0.8678576100620311  0.6167239455909788  0.1725720908922631
  0.4901817621905872  0.1129940575666340  0.1668791410258499
  0.2498024105689735  0.1187210541690100  0.1707579720862799
  0.2590655974741886  0.7853289675633240  0.1723173878731217
  0.7551754891604101  0.1150105107477227  0.1723658889029838
  0.6102764282589895  0.2782104378696010  0.1713604672109125
  0.3694601418092477  0.6180101274635562  0.1745189537194836
  0.0023656879582214  0.7767897504987799  0.1686107355265456
  0.7506702472209066  0.7817586211462300  0.1740534296055234
  0.6261063408340247  0.9468956889300560  0.1696209295835489
  0.8734968003652299  0.9382526484327808  0.1677116692364139
  0.7478913116890542  0.4428285556708645  0.1716754360267941
  0.3567546806747913  0.2842893408706139  0.1761350613789658
  0.1233099959139112  0.2880618270333372  0.1744980775794598
  0.5038153909752925  0.7836818643102493  0.1719848017878024
  0.6166100296740635  0.6180004497362543  0.1704535377190280
  0.3728189811077335  0.5152151554893941  0.2624019883969257
  0.1182923721236186  0.5079785458345468  0.2558134563763004
  -0.0007763813131961  0.0081612651584852  0.2568004546346751
  0.8748235594737512  0.1734949858701057  0.2562061630410923
  0.7554523110399700  0.3505766085997840  0.2561006998784064
  0.9938072835842072  0.6808415806556868  0.2625240003571679
  0.6223105205840618  0.8540186092918665  0.2627445338722863
  0.2441004719678786  0.6786696248725076  0.2631308882024530
  0.7461042611822271  0.6795625053494156  0.2579303625335228
  0.9948360568185142  0.3396561809503248  0.2572120946710644
  0.1232976834395318  0.8472329455560784  0.2573063075986736
  0.6185604171055986  0.1791919883617069  0.2588491383256254
  0.2486536788204716  0.0126186315239081  0.2600211638297127
  0.3748270121744883  0.1749795594773005  0.2606041456093203
  0.8751898505588318  0.5150732248596530  0.2594434378157913
  0.4983416245995025  0.0132196725139123  0.2564282015904651
  0.3676570306639599  0.8461820816589347  0.2618234399367077
  0.4953898757724763  0.3495382741288983  0.2537702059301000
  0.1291808996415957  0.1707466429290871  0.2617242527774984
  0.7499244976770745  0.0085816526031320  0.2550638661571896
  0.8744102841306023  0.8460745265497344  0.2627195612603591
  0.2425041531772270  0.3413162589488159  0.2618942998244174
  0.6243968226316060  0.5146834935013138  0.2589718714275117
  0.4991429260454845  0.6779882583304248  0.2605575739729538
  0.5758607278369391  0.7728633432367192  0.3378468978961035
  0.6826136961317179  0.8122834826773956  0.3720153409295474
  0.3155097388525159  0.8996570150726511  0.3953730850616057
  0.2256964788637768  -0.1053125333091771  0.4422153785342987
  0.8486435809624314  0.7987429659119220  0.7478715754056297
  0.7137100041255864  0.8284773680628500  0.7566968351338195
  0.6262242097505738  0.5276754245692606  0.8655376939790141
  0.6206588632444112  0.5459442153762988  0.9201890152222959
  0.2374607925852477  -0.0392560375517518  0.8172089590591247
  0.3381186256126260  -0.1118865409337288  0.8337587199538049
  0.0175465551544603  0.5359142967888871  0.9231976041106837
  0.0093830684180154  0.4746042406724053  0.8759662446637297
  0.1838108727680698  0.7145811416298093  0.8152464517088004
  0.1839455479373349  0.8154936816244904  0.7951126411489264
  0.7045101973603939  0.1135685588998337  0.4461133582788300
  0.6414535651918720  0.1067204668809416  0.4993211717375339
  0.7450460750369328  0.2408728678928937  0.8862482124384385
  0.8062274106313408  0.3115352459699559  0.9222474785440666
  0.7882089602044405  0.1160090614525027  0.7827380772324560
  0.8554859870062286  0.2105876633811592  0.7928424617203228
  0.9113358904199326  0.1227797372573578  0.8551113786393389
  0.9695760466333965  0.1636895075696867  0.9029676081045094
  0.4047023623639180  0.4006254425613474  0.7228663374876768
  0.3540386650676275  0.4363684815480395  0.6710297218765847
  0.5784058880531060  0.3197276875687597  0.5268029098953007
  0.5623774137399979  0.2504507024424759  0.4899597197685073
  0.6841275601871135  0.7401032595073168  0.5580537697311813
  0.7866348967901368  0.7887541469680485  0.5307159643662483
  0.5283406692313213  0.7438172754164639  0.5972392055602173
  0.6185862651385302  0.8109168331664981  0.6261816392254947
  0.4710173802223565  0.0449981163676224  0.5237976244506503
  0.3610364866144986  -0.0088751064075322  0.5226786832562567
  0.7735823090338311  0.6120534428302397  0.5100661195083429
  0.6676539640388099  0.5543638654849511  0.4828001013385168
  0.1809842701021003  0.2431422636112996  0.6995809816240023
  0.2173774762773664  0.3495817685550560  0.6970717554136213
  0.9131326702052703  0.3788841487113596  0.7675147412943703
  0.0270440147038174  0.3256725109869155  0.7502774732811318
  -0.0812453752887701  0.2052277062464834  0.3389595386023884
  0.9931566399804620  0.2500167356177125  0.3829054016890344
  0.6082463939941035  0.1639738193504104  0.9254311741926055
  0.6081226607086285  0.0837940145384366  0.8834879002283571
  0.1938074693786799  0.3322814227954802  0.9036580705864670
  0.3169927989891618  0.3881155413874778  0.9006327929153012
  0.5708429588828889  -0.0493373909909361  0.9110667434522217
  0.6778838580626971  -0.0428858438321118  0.8760497283740095
  0.1611372098685093  0.7514424132224111  0.5089671161786847
  0.0452620801552469  0.7172533478196385  0.4888226008077448
  0.4062865963505911  0.2810119768451106  0.3600205739064410
  0.4757197856659691  0.1986918221049312  0.3437183777810068
  0.4256608897255114  1.0039338350327482  0.3565904642290513
  0.5031620074698208  0.9283220110129756  0.3419274312219811
  0.9876826161194320  0.1266791928159820  0.6780635465734181
  0.8709317093931066  0.1770093835181896  0.6530590129664902
  1.0053524553004687  0.3329496263391480  0.8958697545942718
  0.0080939222563365  0.3344121882454653  0.8390696204825019
  0.6921973674644954  0.5486579522404349  0.6176981744203546
  0.6647724058215351  0.5188760510925140  0.5596639568640411
  0.4369948461111589  0.8881143378646456  0.5907772960295947
  0.3006923028053952  0.9100136957602275  0.6054095323065879
  0.1738066005798529  0.5826708764128459  0.6343646656180532
  0.1910055917020131  0.5094211229728758  0.5892062402948800
  0.3735366234575373  -0.0482084313489245  0.7543435596067040
  0.4581474606422912  0.0172245520615187  0.7217634222071699
  0.8229051441359178  0.1903532493881494  0.5024697148320904
  -0.0379228918998978  0.1734775084578246  0.5173749002993044
  0.7279723343241488  0.0652850265900390  0.3590376874466553
  0.5973066575841945  1.0412581799328440  0.3812712908052856
  0.8729555650484109  0.6389738657916644  0.7658747753778713
  0.8285081544696712  0.5320652424002945  0.7850958696386928
  0.8473493866141752  0.5784824612338222  0.6900819025785647
  0.8926516568031997  0.5189904983866904  0.6433167989669941
  0.2604114032462412  0.2598530272599562  0.4828477084311359
  0.3677151512284835  0.3031128018499857  0.5112803398220701
  0.7750304267916690  0.8353957322605993  0.6818480917673367
  0.8041546812554715  0.7945703357131969  0.6257371307964223
  0.7789656612836370  0.3828904734948754  0.8423363480343623
  0.8134257453601293  0.4833297215906684  0.8623836407861006
  0.6258639090964966  0.0523979277775412  0.5912746128245780
  0.5242438688737572  0.1316816399439429  0.5903547042049343
  0.0772278201607456  -0.0238583334916091  0.5205172037758689
  0.0575157958208337  0.8621903115084457  0.5072590816486696
  0.7577163703299560  0.4382543961906556  0.3401026632392707
  0.7630596171069594  0.5263871142121874  0.3785515622369304
  0.4509558993782317  0.7866555157590649  0.8896358116705066
  0.3334251952825639  0.8384078364634933  0.9089835956318517
  0.8953265827054796  0.9820428659685091  0.8932988717771947
  0.8399014262749759  0.8970518922122215  0.9217986232027339
  0.2865291289049841  0.6718287131161050  0.8855447817966129
  0.1686991945597642  0.6104206961763047  0.8897081040155578
  0.8748335318842110  -0.0769688568203398  0.4990121254821300
  0.7713716976770379  -0.0341782812894100  0.5361922990349189
  0.5496165562379196  0.3267502496868290  0.7952865976276993
  0.5808114140876411  0.2387753338796233  0.8302555870346784
  0.4091484177480225  0.4553646038066572  0.8050910502411744
  0.4924994762164825  0.5106854950686497  0.7632946977398721
  0.5283514624734064  0.1805420134841078  0.7594553084140495
  0.6035272897267043  0.0963716012279588  0.7324102490478125
  0.6120972965872776  0.6924857405253028  0.8900823268430169
  0.6260684761234362  0.7762650847234739  0.9209306989913072
  0.4136774675348933  0.1580924155174596  0.8686751207034902
  0.3151054245669643  0.2229407850564518  0.8919186515945169
  0.9170685658766621  0.3635287426050997  0.6193628234658659
  0.0285667535979539  0.3694174624541116  0.6523269536395430
  0.1162125184878756  0.0825397798191289  0.7391905134909474
  0.1516553084392659  0.0323910220106881  0.6898335211735042
  0.0795106226588481  0.4153053576222322  0.5779180214144495
  0.1773152002479643  0.3936687376832071  0.5380873715919402
  0.3135603355899903  0.5275980663966037  0.8683525677942429
  0.4377594864776466  0.5004671916270875  0.8913264075819470
  0.8748931463893233  0.2406919979963505  0.5708013623072407
  0.7615992948803260  0.2724647824132223  0.6042905529652790
  0.4054788073163432  0.2889219352857199  0.6678080912406097
  0.4800445055390182  0.1945359381691155  0.6767584289826827
  -0.0654253295603822  0.6602878610001479  0.4210226799511952
  0.0647907162306346  0.6279729702056323  0.4213393021608119
  0.5187433640474317  0.5998477564422012  0.5860056180890868
  0.3792487864130428  0.6236195941696522  0.5996965761595326
  0.5225446184550403  0.8403685090485281  0.7608121607861872
  0.5674228090303136  0.8188835542524896  0.8145958863659061
  0.0833584837329669  0.8380350098096556  0.9114517310092433
  0.0003600109843086  0.8979294681940738  0.8782928280755565
  0.6641447125619102  0.5732539181066598  0.7424464478579309
  0.5827590664469312  0.6551799746098876  0.7570091379983117
  0.9212492366922955  0.7499944828557522  0.8131650525748165
  1.0329796689458683  0.7402423001160864  0.7752025153856781
  0.2616851122861367  0.2323660787859231  0.5572575084668285
  0.3082697414675568  0.1748988417713573  0.6046497641830091
  0.0762191930988879  0.7627551053882509  0.3382350472621658
  0.1407090152966139  0.8019939125989447  0.3828775384873340
  0.6074867847938755  0.3831404381029457  0.5997881604280750
  0.5466907704323345  0.2890305569607656  0.6111469923272336
  0.3483616018455240  0.8279205877450987  0.5341561340255496
  0.3351622207420960  0.7280833962663532  0.5152189241924897
  0.8948114319940965  0.8334938533392056  0.3813679685826443
  0.8361878346125965  0.9115796549584655  0.3488481622572756
  0.7319470128842404  0.9374578821851662  0.6163613696217191
  0.7989055161900789  0.0342863484362240  0.6295841827410842
  0.2743137830542676  0.0752860836851097  0.9063880347983894
  0.1651177203156605  0.9945757291598749  0.9069398677371894
  0.7611872478833221  -0.0175652037801894  0.7341389335568750
  0.8149955686519904  0.0753474846954395  0.7094274832887325
  -0.0575787590306499  0.6629469216844350  0.6335272400369597
  0.0050551494100206  0.7172341965502813  0.5909149450641792
  0.1077181501893562  0.7641930578118994  0.6618851681134652
  0.1721115864362123  0.7477923976729460  0.7147201443002286
  0.7145029323771827  0.6821291955011286  0.3736066933570483
  0.8289142358047840  0.6466462186718216  0.3446656903988770
  1.1310495347300740  0.3820100033095764  0.3718555995841134
  0.9920918669181661  0.4022807691640198  0.3677271370178664
  0.0791912267747578  0.0865177284300163  0.8386417997838271
  0.2218477270747166  0.0970258614398743  0.8304078845966386
  0.3201582337689018  0.1748902136511084  0.4216634159998817
  1.2991153727154794  0.1116521988136761  0.4679551907028386
  0.1547387488432475  0.1019501324611810  0.5600000054779000
  0.0377134763529978  0.0559482942957972  0.5849973381287481
  0.2955778257488402  -0.0436220359578824  0.6850922826874700
  0.2039235265353026  0.8771786710582997  0.6723562420250703
  0.8963763592460632  0.6444824392599577  0.8835590898767801
  0.8309852683387763  0.7350270992788818  0.8994880300658274
  0.5988207616449909  0.5264898648851257  0.4087824798593643
  0.4701864018026817  0.6660739458081343  0.4319419671141524
  0.1738374090848079  0.5300745676794042  0.3520777758312363
  0.3309953451687500  0.6645949345322186  0.3533283402172064
  0.2510677795000345  0.4807955863551116  0.4039038110024463
  0.2432919114420053  0.6599330656556369  0.4043278816003710
  0.4689529739620346  0.4099296093133103  0.4008075844129550
  0.3971673719775876  0.5591006123888477  0.4500043059444439
  0.5546875448600870  0.5928442923380263  0.3537745417244491
  0.5329192704969975  0.4227423814569222  0.3389136269464653
  0.4698675999267773  0.4571552348400935  0.3676908857752571
  0.5235451343579163  0.5485870867882278  0.3863890768974745
  0.3463718861813361  0.4634426220616773  0.3400500369052741
  0.4292743172418549  0.6002012899207793  0.4187560211149008
  0.2628721180257512  0.5231482200937662  0.3702103887093502
  0.3116339081705259  0.6172721639034946  0.3870955192386251
  0.6031025789465937  0.7790313890370082  0.3753539405311965
  0.2340951153989143  -0.1160491066406460  0.4067010276772099
  0.7855663978911006  0.8489054371130871  0.7373047426647313
  0.5803591165892305  0.5654479952120033  0.8884238826981475
  0.3016734057880467  -0.0784383869522220  0.8055708935211043
  -0.0081822093742145  0.5390737498342795  0.8883163477198500
  0.1638862757519877  0.7522150239696871  0.7854612510135921
  0.6974172473208394  0.1388488201158476  0.4800856950261223
  0.7961373633042853  0.2963777690013017  0.8862727957518044
  0.8282648117261719  0.1561761142564626  0.8093248543007789
  0.9696730822306002  0.1060526296263791  0.8831675130876401
  0.3513562968264616  0.3818432516735144  0.6931699011299829
  0.5300745198835189  0.3095504638016709  0.4955858896758472
  0.7503460401011728  0.7282493145355703  0.5351032478704509
  0.5676044021874317  0.8047161722099259  0.5950840255939268
  0.4056307573782200  0.0319994601431975  0.4982486763752945
  0.7462697818704571  0.5480412114247714  0.4988878691719064
  0.1461707637783666  0.3076692967053316  0.6966654720631907
  -0.0397449912233375  0.3203712012957169  0.7747396949557878
  0.9267339713878798  0.2071771354920941  0.3772905677335091
  0.6128597812480882  0.1612671558008626  0.8860997793433369
  0.2780363237455921  0.3272822227872484  0.9143717156189304
  0.5903334259453118  -0.0199393716595756  0.8771279866596116
  0.0775238504374009  0.7497841396949094  0.5192230028045015
  0.4558918865888564  0.2304241220419822  0.3762030496630348
  0.4772008901690152  0.9562352855261683  0.3738551195031933
  0.9061981870900839  0.1222304603902054  0.6707396133851592
  1.0512850510957719  0.3623413451843852  0.8698579041974285
  0.6414771881493935  0.5113725558321693  0.5954891807144489
  0.3624686718502850  0.9134156869123110  0.5771401497658178
  0.2363500912634182  0.5550771857141203  0.6110926253415121
  0.4046668606662958  -0.0400798123927572  0.7188532693696355
  0.8992990416683786  0.2209615536361402  0.5084064706867291
  0.6719589627337688  0.0756920446562307  0.3858438865860249
  0.8222702119612885  0.5791964727574671  0.7564332396478030
  0.8535979255182269  0.5735814015277265  0.6517567169375991
  0.2746622897815051  0.3056621162103852  0.5101759999882687
  0.7527314316315019  0.8364084381953338  0.6453128633248882
  0.7787889564266289  0.4521807637058156  0.8321078979409929
  0.5580370196140270  0.0794641151863524  0.5693938777122505
  0.0667526163798433  0.9277093378590163  0.4925722543148120
  0.7868271532618752  0.4585857677123464  0.3744799202621065
  0.3621537052763614  0.7945667497366828  0.8840783012023147
  0.8463482163255862  0.9220438015568502  0.8864942442181825
  0.2419876175850356  0.6214297782881192  0.8691341329240787
  0.7891821335120905  -0.0823373993072019  0.5089525167959701
  0.5628489753367236  0.2608290979029384  0.7940831961627443
  0.4586940234627062  0.4456295848352524  0.7731546215433620
  0.5229149100896541  0.1337648351006463  0.7309559001913277
  0.6013751357817489  0.7593952274328515  0.8863394877438375
  0.3279967980457184  0.1595319379299166  0.8754959088922463
  -0.0197419943441876  0.4098482416243707  0.6302197360003050
  0.1247820552669170  0.0936807555844303  0.7013857220172383
  0.1194974219138216  0.4441597795200878  0.5484518916010612
  0.3709130618555742  0.4705372316424364  0.8716174629507117
  0.8505420584343388  0.2568887823226156  0.6043037707743532
  0.4418749167577506  0.2326608433766498  0.6493837278855840
  -0.0066011000439558  0.6318245190834456  0.4428319805687777
  0.4498097987059416  0.6474817308490388  0.5809973689567995
  0.5774099589681644  0.8026833777238539  0.7801816730393353
  0.0859418830075987  0.8838744422705336  0.8844263176551056
  0.5838463309354862  0.5985443919143316  0.7379119051737765
  0.9424158004775151  0.7320525499712577  0.7771279492038341
  0.2510347842401623  0.1699801640718754  0.5774207147514243
  0.0694279637444735  0.7690644668418387  0.3758933671169368
  0.6147003246491379  0.3122824352656219  0.5928921164290343
  0.3390397151443708  0.7907675701019493  0.5004070426949674
  0.8308171170068253  0.8801725971421339  0.3826544604438528
  0.7444695707926803  0.0059357202367030  0.6036033245968506
  0.2424881421851138  1.0148883618680711  0.9210798398979040
  0.7514162897052195  0.0495946250668243  0.7280465720690515
  -0.0218412599450710  0.7220432747148006  0.6262309051454147
  0.1856589871920590  0.7527097054418798  0.6790782503705238
  0.7812922751876924  0.6419392992941131  0.3761769468433214
  1.0587826481505185  0.3823139475246393  0.3912505925137036
  0.1494964468402752  0.0619423003548752  0.8161900928633494
  1.2601851012826411  0.1605207219795109  0.4477081166115930
  0.0702843003651316  0.0771944742556012  0.5516575944408069
  0.2144908163077184  -0.0528444340443074  0.6652431094923174
  0.8528531405822029  0.7005375270799270  0.8696386944011645
  0.3065877065009880  0.3733964743223191  0.3326829702365114
  0.6906281087894618  0.2790034599487785  0.3902068532790777
  0.5501465227529040  -0.1368577559323039  0.4599182776310898
  0.0224088590311708  1.0224446825456679  0.3923501340499851
  0.9367909594734455  0.4340098014365798  0.4734907245137762
