cyc-co-4k-10ps
1.000
11.0985002518  0.0000000000000000  0.0000000000000000
0.0000000000000000  14.4173002243  0.0000000000000000
0.0000000000000000  0.0000000000000000  26.7964000702
Pt  H  C  O  K  
96  170  6  81  4  
Direct
  0.0000000000000000  0.0000000000000000  0.0018699899937576
  0.1249999521128992  0.1666699702868031  0.0018699899937576
  0.2499999943280624  0.0000000000000000  0.0018699899937576
  0.3749999464409617  0.1666699702868031  0.0018699899937576
  0.4999999886561249  0.0000000000000000  0.0018699899937576
  0.6249999407690242  0.1666699702868031  0.0018699899937576
  0.7499999829841874  0.0000000000000000  0.0018699899937576
  0.8749999350970866  0.1666699702868031  0.0018699899937576
  0.0000000000000000  0.3333300219343480  0.0018699899937576
  0.1249999521128992  0.4999999922211510  0.0018699899937576
  0.2499999943280624  0.3333300219343480  0.0018699899937576
  0.3749999464409617  0.4999999922211510  0.0018699899937576
  0.4999999886561249  0.3333300219343480  0.0018699899937576
  0.6249999407690242  0.4999999922211510  0.0018699899937576
  0.7499999829841874  0.3333300219343480  0.0018699899937576
  0.8749999350970866  0.4999999922211510  0.0018699899937576
  0.0000000000000000  0.6666700318690679  0.0018699899937576
  0.1249999521128992  0.8333299447943854  0.0018699899937576
  0.2499999943280624  0.6666700318690679  0.0018699899937576
  0.3749999464409617  0.8333299447943854  0.0018699899937576
  0.4999999886561249  0.6666700318690679  0.0018699899937576
  0.6249999407690242  0.8333299447943854  0.0018699899937576
  0.7499999829841874  0.6666700318690679  0.0018699899937576
  0.8749999350970866  0.8333299447943854  0.0018699899937576
  0.0000000000000000  0.2222199683821562  0.0864100026098289
  0.1249999521128992  0.0555599860957249  0.0864100026098289
  0.2499999943280624  0.2222199683821562  0.0864100026098289
  0.3749999464409617  0.0555599860957249  0.0864100026098289
  0.4999999886561249  0.2222199683821562  0.0864100026098289
  0.6249999407690242  0.0555599860957249  0.0864100026098289
  0.7499999829841874  0.2222199683821562  0.0864100026098289
  0.8749999350970866  0.0555599860957249  0.0864100026098289
  0.0000000000000000  0.5555599783168760  0.0864100026098289
  0.1249999521128992  0.3888900080300730  0.0864100026098289
  0.2499999943280624  0.5555599783168760  0.0864100026098289
  0.3749999464409617  0.3888900080300730  0.0864100026098289
  0.4999999886561249  0.5555599783168760  0.0864100026098289
  0.6249999407690242  0.3888900080300730  0.0864100026098289
  0.7499999829841874  0.5555599783168760  0.0864100026098289
  0.8749999350970866  0.3888900080300730  0.0864100026098289
  0.0000000000000000  0.8888900002512240  0.0864100026098289
  0.1249999521128992  0.7222199606033073  0.0864100026098289
  0.2499999943280624  0.8888900002512240  0.0864100026098289
  0.3749999464409617  0.7222199606033073  0.0864100026098289
  0.4999999886561249  0.8888900002512240  0.0864100026098289
  0.6249999407690242  0.7222199606033073  0.0864100026098289
  0.7499999829841874  0.8888900002512240  0.0864100026098289
  0.8749999350970866  0.7222199606033073  0.0864100026098289
  0.2481985252604957  0.4408768257864737  0.1706644804010745
  0.4904421025459907  0.4528376060724633  0.1721283630008728
  0.1156154002782396  0.6130143383643876  0.1719714464341331
  0.8760267274961905  0.2835207610167156  0.1697540040111085
  0.0000384097211631  0.4472630120049459  0.1685342172966853
  0.0005275562343705  0.1111155047392225  0.1715738367077487
  0.1233849856135208  0.9514926361926437  0.1735174466689210
  0.3769458679537803  0.9457110807416788  0.1726021873603666
  0.8696962113628413  0.6240255609116178  0.1754973145452407
  0.4943964616940101  0.1126843491586428  0.1707221056901415
  0.2553797790778368  0.1095106529611481  0.1749899429593418
  0.2464286917195346  0.7786553235382222  0.1725575263351219
  0.7551972514701385  0.1216103590147112  0.1738479429697972
  0.6220683982577083  0.2830493190897074  0.1697717479766694
  0.3603999269046536  0.6101899882872928  0.1763679983736235
  0.0081723302736593  0.7875087918515795  0.1725663514907167
  0.7537029821973771  0.7841229153809125  0.1724243075859374
  0.6179669897189630  0.9500195002122884  0.1717055203216205
  0.8706570815577371  0.9466404122039879  0.1700514680204201
  0.7502994452741000  0.4542551107080091  0.1721743698561508
  0.3719406035541160  0.2790132791172634  0.1719967165263181
  0.1295679265463618  0.2763995815931952  0.1728532882277358
  0.4954698743560558  0.7798585583484928  0.1701419539548609
  0.6156546478693661  0.6195007722212881  0.1726973580546881
  0.3732612482328979  0.5181950066148905  0.2655308786538390
  0.1223506797307833  0.5158476279050430  0.2571595670033063
  -0.0005001682185933  0.0095297222269415  0.2616819359477366
  0.8794637620715433  0.1826675835924661  0.2556223208623290
  0.7500634549203965  0.3524446688940829  0.2544949142957433
  0.9991493838279213  0.6833584746396825  0.2662710523207510
  0.6191299174035307  0.8455999684359712  0.2617173016460213
  0.2360733981490037  0.6842484146007284  0.2616423332138910
  0.7433756519996405  0.6801056294002558  0.2616651893922730
  1.0012059037794614  0.3492457200283122  0.2573517016962693
  0.1207641702384630  0.8515762602631175  0.2596389867770799
  0.6353756839764294  0.1834049428160801  0.2587264807935917
  0.2461070460179525  0.0136936589672485  0.2635635536713080
  0.3787341358322966  0.1844242295598791  0.2594636308976449
  0.8747728971511631  0.5202579048716578  0.2623726396337359
  0.4977238171890924  0.0140520956037618  0.2578706027040006
  0.3740614123180012  0.8476142424712064  0.2596179222012965
  0.4999693793943064  0.3462908930955833  0.2549695776037503
  0.1235114809028075  0.1834439191009085  0.2640433787659594
  0.7488532589483939  0.0130291848319418  0.2588268839333027
  0.8712542877252033  0.8494536334173216  0.2594114245790225
  0.2516172526145673  0.3491490677578926  0.2593145164610217
  0.6260294180894528  0.5175210462652529  0.2587081214729848
  0.4946965065581312  0.6854725121589004  0.2593466229304633
  0.7569335200886732  0.7377248780789961  0.3436721711041115
  0.8776321831069258  0.7532253050815038  0.3661754932376917
  0.3552810436852037  0.8765112061341954  0.4000235947298272
  0.2938000533244264  -0.1574316038223587  0.4488011856179993
  0.8257295749769151  0.7832037687311352  0.7624383155601808
  0.6967912881423574  0.8336137025809580  0.7619127883004329
  0.6674960917893845  0.5311521854343438  0.8580710085856090
  0.6494064357056772  0.5590595980109265  0.9153493344868144
  0.1988186217991144  -0.0166547517402245  0.8161542441785453
  0.2940106646364927  -0.0848440278602432  0.8406324773024585
  0.0449559881587676  0.4431092951808303  0.9251937639739441
  0.0283873111278168  0.3871045282592756  0.8763357547200828
  0.1638341698649868  0.7133455346283005  0.8217481447997970
  0.1937784443669494  0.7699458438820825  0.7696313707912957
  0.8316198157046565  0.1481707203821317  0.4421917169380268
  0.7618198313622350  0.0944696251940698  0.4891906081510509
  0.6053511538651690  0.2671460643726036  0.8715776581076282
  0.7159065931823868  0.3245948889870757  0.8934690522487525
  0.7552415473920059  0.2264486516967510  0.8097098482317912
  0.8274404033203141  0.2509134232637262  0.7625415611861885
  0.8511953878604317  0.0814313275186722  0.8604020304966254
  0.8729093047800546  0.1058707062177523  0.9198902571100485
  0.3267967590766839  0.4747849827433520  0.7238457274180872
  0.2992033534676394  0.4718971891722764  0.6661287212288877
  0.6125079916268403  0.3351602557568723  0.5400150041420096
  0.5800622999720965  0.2390127276320424  0.5224221343473737
  0.8288316885705438  0.6700585286153351  0.4687664719773027
  0.7294379319212081  0.6660694003593345  0.4272231315814414
  0.4737169613027047  0.7340250784792003  0.5962237114106781
  0.5758316644326339  0.7672276793651260  0.6291588349230886
  0.5173468030483466  0.0517503291457070  0.4909500235903072
  0.4245354194712782  -0.0250134716964673  0.4966210374467168
  0.7487275566401226  0.5417882738152698  0.4779700624802773
  0.6639346201848234  0.4603925431969892  0.4950644406019643
  0.1452670307538642  0.2411734274520750  0.6920996623693706
  0.1955208357586929  0.3529748694157531  0.6914835546475592
  0.9290295043087237  0.4097690713995545  0.7576905739767327
  0.0215050565738637  0.3378460912113310  0.7359485791313911
  -0.1280022726556767  0.1765315616657745  0.3386348707560654
  0.9580359119850932  0.1927883025363684  0.3850409165100583
  0.5075689636612276  0.2119413103397699  0.9188379548744449
  0.4930508867279169  0.1265865937177299  0.8813129857865918
  0.2017308943374475  0.3776512756336359  0.9046711908201133
  0.3356657517663976  0.4068320826956201  0.9103259634650593
  0.4683584872791217  -0.0118322363789357  0.8695953429361558
  0.5768942710670831  -0.0009273275087569  0.8986518636725321
  0.1785414583180845  0.7499816328216186  0.5208111764169461
  0.0497391016782173  0.7253724229986867  0.5018052216556430
  0.3410472476392578  0.2847400455031669  0.3526650579683432
  0.4160225509163870  0.2025116527142139  0.3273137179331021
  0.5027219802508992  0.9509320107305772  0.3880580371638849
  0.5070130207896671  0.8650183318011270  0.3493064065985987
  1.0135849104184635  0.1081291674132208  0.6548171054257975
  0.8958324547487847  0.1532993714159344  0.6183122383750981
  0.9519708539346523  0.2381381344555233  0.8710764303283439
  -0.0098403478688292  0.2984327494788576  0.8214690513924584
  0.7885193738028401  0.5442100763134345  0.6048999919480236
  0.7553920001074284  0.5234056307491776  0.5517595194192683
  0.4213835360990787  0.8790674948932991  0.5929738324167887
  0.3112579150358388  0.9397013392192012  0.5858491318562714
  0.2228847921951263  0.5606357500120966  0.6041831089992068
  0.2399079205830685  0.4739917108254429  0.5681841035778491
  0.3614500364541948  -0.0116050073173893  0.7681018871818321
  0.4710125860430716  0.0602415602843679  0.7492059167651530
  1.1338601959808985  0.1716734210145902  0.4530704086405061
  0.0718528458897557  0.1532400411192289  0.5012208379750376
  0.6467111871296232  0.0494182480988456  0.3559828392623638
  0.5089967911460654  1.0739362645235999  0.3494465728780303
  0.8869624753581880  0.5460286226981321  0.7657323798997473
  0.7723135540957289  0.4848338471663743  0.7580407856497715
  0.8958341994349640  0.5360588010558157  0.6892435062140849
  0.9454474376299802  0.4865521453369462  0.6414247938481281
  0.2985618168691386  0.2134896087418782  0.4766160728061065
  0.3973952919706145  0.2876387826210609  0.4977502404411762
  0.7835774379506421  0.8449336338621923  0.6806437738807753
  0.8371492849399297  0.8151124347117894  0.6288000485422757
  0.5562723953174402  0.4743407305463141  0.7875068872168282
  0.6183158690460930  0.3953197786915562  0.8188070615276584
  0.6131353697628070  0.1102155298688837  0.5805981669045844
  0.4760575784591343  0.1253618622128508  0.5747813323786162
  0.0831648196746496  -0.0073268647774954  0.5247062827120664
  0.0481454554108190  0.8928054156217700  0.5116491097155675
  0.7534539358003602  0.3712672211457598  0.3466169258171804
  0.8306736905470435  0.4484514752215972  0.3753722726839749
  0.4312373738626327  0.8001867783439414  0.8753761068557193
  0.3368465016607696  0.8016482998821060  0.9155943949831050
  0.8469296725542287  0.7893029969869073  0.8942477501576259
  0.7762511801360501  0.8751077593941535  0.9101792326545886
  0.1533842185680816  0.6240980362005930  0.9302138798681533
  0.1489140233007568  0.5535508035095722  0.8853049114116671
  0.8937417521517165  -0.0209017837952827  0.5007453799856575
  0.7875966830907920  -0.0204429367644878  0.5452841153707608
  0.3078927119135572  0.3344976092314224  0.8043458333632474
  0.4115907239592247  0.2912078394208404  0.8366859869073697
  0.4104418179259134  0.5444318299601132  0.8096051463243464
  0.4157686229949507  0.6135563165696294  0.7588072680633119
  0.4923944804716917  0.2471832454243720  0.7578953513231533
  0.6272148012945273  0.2082778648417717  0.7573549679671030
  0.5583950701172339  0.6814356769959685  0.8675493181135541
  0.6407475091102200  0.7718139926534179  0.8742099129558621
  0.2804740240011389  0.1979933345418418  0.8886145502798606
  0.1358163900348185  0.2203743703169130  0.8777354256946072
  0.9480386670076013  0.3090310048125756  0.6087219247312221
  0.0557714691045406  0.3446546626479271  0.6418788725366132
  0.1159963781855306  0.0970763532718175  0.7365555777975324
  0.1795697201860021  0.0668718101031853  0.6848057150858563
  0.1006232495529185  0.3610750539082120  0.5594025134096350
  0.1894159431369163  0.3493017225729939  0.5146971357222709
  0.3399061812777964  0.5803451325233286  0.8838982012714524
  0.4661171850188487  0.5301124676115343  0.8885815173949327
  0.8180224620554077  0.1954733278044663  0.5358807827723563
  0.7655513256777200  0.2723187952889164  0.5765459733220311
  0.4323785823333849  0.3454400739540546  0.6696086725453222
  0.5077293191200394  0.2563125441455125  0.6867189040390624
  -0.0174556546564550  0.6193985394192330  0.4339084778305901
  0.0142087232348735  0.7234756174057847  0.4210189362804134
  0.5452763319907573  0.5990211796827111  0.5670844201083233
  0.4069175723420422  0.5742907779880129  0.5668602459885063
  0.4867509511678254  0.9021809070173210  0.7741364743157895
  0.5396559111064235  0.8103453321176325  0.8067709665464271
  -0.0121057500789992  0.9033894542923949  0.9024304658442694
  0.0402103870590642  0.9242667006365255  0.8512270122196960
  0.4449523557292424  0.7301335360734013  0.6907328277944259
  0.4575266409960618  0.7668076344742113  0.7491099571178398
  0.8863051344801879  0.6850886413638212  0.8158536060077874
  1.0018206097618210  0.6942618729011022  0.7843766507940155
  0.3325388576624513  0.2345492902617407  0.5575073609687489
  0.3795000116900389  0.2198478657923553  0.6158284708493992
  0.0754176555939843  0.7686633503214063  0.3376476674104407
  0.1475776342424608  0.7939111087114604  0.3879575205649036
  0.6932804652098913  0.4114242674229944  0.6054683151056158
  0.6017249258625637  0.3313712606572261  0.6240724812732349
  0.3425460042570542  0.8094802172621495  0.5234490461052185
  0.3935714476189313  0.7158877884434928  0.5047068597710729
  0.8355044319700845  0.9182859377850544  0.3488748934710999
  0.8663194817282294  1.0213370042666872  0.3616538727967898
  0.7353242170964870  0.9511885377045918  0.6161052841183668
  0.8161419994049145  0.0369754188444725  0.6185678096526601
  0.2118513240308002  0.0627703455862479  0.9051344317729083
  0.1718694689483505  0.9538710334006179  0.9034528359248858
  0.8196719869537860  -0.0537886940089473  0.8065030749236272
  0.8141470875972214  0.0507529497281817  0.7879472863140609
  0.0343257019197899  0.6448997561713347  0.6437261335257880
  0.0738368212738558  0.7048519593614412  0.5943039294039447
  0.1646526749416999  0.7706998165698177  0.6663168378000238
  0.2815213592388991  0.7923797581634023  0.6944625243968866
  0.9412461511730611  0.5683395924702566  0.3554293635954404
  1.0119579286740543  0.4773624525762523  0.3722036236909176
  1.1411756297924922  0.3230048308317103  0.3678356378796382
  1.0162834925890720  0.3303417874431646  0.3405474207726997
  0.0173223641877937  0.0814629202366509  0.8133347104052747
  0.1596527105464204  0.1129102631334735  0.8237300004692479
  0.3562834481946053  0.1574501817943668  0.4034960330221439
  1.3606777730126896  0.0797777292007418  0.4463375746916415
  0.1832120846841642  0.1159596852247122  0.5828006212061096
  0.0446220055831129  0.0854695312665467  0.5829699497162122
  0.3348230455999961  -0.0128538707675415  0.6825687482864740
  0.2367108208583336  0.9253803899646382  0.6649284189750125
  0.9929085852850040  0.6394627923583817  0.8870464455087003
  0.8750013731832819  0.5988376271965430  0.9053917647833850
  0.6126918343852048  0.5106250532531612  0.4159352257355969
  0.5005602473450402  0.6756927687737726  0.4202777417189064
  0.2123985518149340  0.5751663805143946  0.3350003957950685
  0.3862875563393965  0.6708480834711614  0.3501069503822338
  0.2192324662429395  0.5217750604389071  0.3945177552322272
  0.2816807681734272  0.6820626423611460  0.3995054546787896
  0.4336483985410040  0.4126289820873062  0.4050478708619680
  0.4219222446420668  0.5809707199190047  0.4542460175139918
  0.5816880438735820  0.5659355130406293  0.3605027214063348
  0.5256480432528560  0.4070473601575383  0.3534846334912667
  0.4622324586214233  0.4522325911692363  0.3723555955150930
  0.5326051075992281  0.5347429748952405  0.3916619383389311
  0.3463134066313722  0.4685260952057318  0.3424852865630283
  0.4534711693846880  0.6055152586810935  0.4170498628443783
  0.2743198675610449  0.5498255815634080  0.3643270942262483
  0.3474316769398300  0.6332173191422358  0.3830660629266902
  0.7958121709973865  0.7437794243977912  0.3774281749229204
  0.2696948353643141  -0.1287547083517940  0.4165063270872675
  0.7854489189371502  0.8429763291199053  0.7532393388112806
  0.6183594325897279  0.5678372954668416  0.8828221034029157
  0.2735873680146597  -0.0537069959946398  0.8085834477928916
  0.0742985539299567  0.4432129723933975  0.8890763530432013
  0.1582001232297345  0.7131799457896928  0.7851618436163678
  0.7634318971273458  0.1511137811521699  0.4658903185799025
  0.6777279602151731  0.3068638186879961  0.8616675017319843
  0.7835930733244370  0.1980955950744701  0.7775368322243628
  0.8802073699926822  0.1294691483675910  0.8841645844229690
  0.3067871464027568  0.4328555034999973  0.6947718272987049
  0.5880865997314766  0.3020612394101298  0.5101911232809102
  0.7399524578889012  0.6513284564104949  0.4629251942650002
  0.4943655857385003  0.7783912174128894  0.6223007356142798
  0.4725806827953493  0.0088998783408653  0.4710933757567899
  0.7495629490165382  0.4826507188892125  0.4958499494369144
  0.1272320626267483  0.3118314046288984  0.6943431931101606
  -0.0428463716908847  0.3445902539593687  0.7633089974890548
  0.8892787515501742  0.1545483932105731  0.3752558444849696
  0.4841539184835827  0.1978098120196749  0.8842110390249580
  0.2785081361419697  0.3575736582297815  0.9189884387636776
  0.5423243607733230  0.0279398603159461  0.8699483479508301
  0.0934753113270187  0.7600471687709501  0.5292465015392700
  0.3963942201908307  0.2341602553652802  0.3633096961605163
  0.5059382765242818  0.8819049386146312  0.3841247960821020
  0.9485735876694300  0.0994801059065576  0.6266811110636872
  1.0038738472428315  0.2854980514911105  0.8560777642930895
  0.7185873153272707  0.5387173090152600  0.5834609691876909
  0.3711230802587024  0.9082248609854248  0.5671830470766129
  0.2786777089182279  0.5136609571199772  0.5954183890373942
  0.4309972892079905  -0.0006491799542486  0.7425961459027985
  1.0576995383494396  0.1770406860500769  0.4678355844612688
  0.5717913864777158  0.0621686858049402  0.3755816149607473
  0.8518610365996657  0.5038141426823668  0.7428216951364331
  0.9233996834246032  0.5480026301514853  0.6535433377849732
  0.3095203694880183  0.2732034677311607  0.4974973288529686
  0.7648701725013011  0.8452026866210065  0.6435344365110195
  0.6389981543812464  0.4528427988199843  0.8006801325361710
  0.5538234922059057  0.1284883191984678  0.5556997210591675
  0.0447749053679037  0.9542370696846584  0.4971601254795181
  0.7901353645216844  0.3881649711759204  0.3789516057454582
  0.3490565316851435  0.8249860758849177  0.8820035233756531
  0.7770462478388750  0.8285470380831985  0.8846566721424185
  0.1554808796368801  0.6183544845084094  0.8918349359015834
  0.8064141568630818  -0.0147897549390425  0.5094257771953811
  0.3943692704958163  0.3159505784600643  0.8039177521743582
  0.4117092311872429  0.5495646945705950  0.7733955256753756
  0.5407453621877116  0.2006720448273436  0.7443888284263521
  0.5638361934609223  0.7482733816638539  0.8591375377098619
  0.1998909224550584  0.1714903636696685  0.8858162378123815
  0.0015758105692851  0.3646918183362783  0.6133357347234640
  0.1255297145732863  0.1121625120266588  0.6971276051992671
  0.1328852337468575  0.3970444437823262  0.5282780291164068
  0.3812266382310341  0.5208668894362715  0.8790861043232732
  0.8274700264038426  0.2243309789268838  0.5697879657342361
  0.4826424264333591  0.2961450849239912  0.6568689179586735
  -0.0095718666387173  0.6793759112604983  0.4487093831858235
  0.4659578891176108  0.6186880177653429  0.5559435990943843
  0.5401574743783707  0.8427721861351432  0.7749834715781284
  0.0595320326719678  0.8908177083357902  0.8824243045615759
  0.4168383492850479  0.7213290852382822  0.7245988242873357
  0.9103440743591802  0.6817454209029777  0.7797116059830517
  0.3369936736896871  0.1894932978363947  0.5873520434038858
  0.0665288330898806  0.7951726149863555  0.3735569240672741
  0.6578045450794986  0.3510320138142037  0.5973321623265544
  0.3264031947841308  0.7560267803835110  0.5004286131857231
  0.8417185592066735  0.9615861389453108  0.3760158779389652
  0.7404884921156010  0.0159834536712777  0.6025729843150340
  0.2330360597577618  0.9980019544608325  0.9190763682353166
  0.8611923448530673  0.0073089387999560  0.8079248090558313
  0.1033464848022125  0.6720913075229009  0.6236264829201468
  0.2010919134446147  0.8199926761165852  0.6872244541190923
  0.9487845991346612  0.5220738283380966  0.3829459849127940
  1.0544440185152042  0.3269522941302879  0.3773249271921523
  0.1019019798748553  0.0901837155897285  0.7979380626608331
  1.3080810466572230  0.1269829721458053  0.4308031945432079
  0.1160167523257180  0.0915299414363185  0.5599969048823057
  0.2812368158746290  -0.0193048540274477  0.6534323367739342
  0.9043394070448563  0.6418313499918312  0.8797884492782184
  0.2757200835945112  0.3921553286703863  0.3337304523768910
  0.6488304458462398  0.2392124517589734  0.4010209881494651
  0.6946833975653215  -0.1348180529613943  0.4459025430616665
  0.1062895940835500  0.9946562399061271  0.3979099714874654
  0.9334452733034626  0.3525414016442027  0.4702497456519707
