1-pos-1
1.000
11.0985002518  0.0000000000000000  0.0000000000000000
0.0000000000000000  14.4173002243  0.0000000000000000
0.0000000000000000  0.0000000000000000  26.7964000702
Pt  H  C  O  K  
96  168  6  81  4  
Direct
  0.0000000000000000  0.0000000000000000  0.0018699899937576
  0.1249999521128992  0.1666699702868031  0.0018699899937576
  0.2499999943280624  0.0000000000000000  0.0018699899937576
  0.3749999464409617  0.1666699702868031  0.0018699899937576
  0.4999999886561249  0.0000000000000000  0.0018699899937576
  0.6249999407690242  0.1666699702868031  0.0018699899937576
  0.7499999829841874  0.0000000000000000  0.0018699899937576
  0.8749999350970866  0.1666699702868031  0.0018699899937576
  0.0000000000000000  0.3333300219343480  0.0018699899937576
  0.1249999521128992  0.4999999922211510  0.0018699899937576
  0.2499999943280624  0.3333300219343480  0.0018699899937576
  0.3749999464409617  0.4999999922211510  0.0018699899937576
  0.4999999886561249  0.3333300219343480  0.0018699899937576
  0.6249999407690242  0.4999999922211510  0.0018699899937576
  0.7499999829841874  0.3333300219343480  0.0018699899937576
  0.8749999350970866  0.4999999922211510  0.0018699899937576
  0.0000000000000000  0.6666700318690679  0.0018699899937576
  0.1249999521128992  0.8333299447943854  0.0018699899937576
  0.2499999943280624  0.6666700318690679  0.0018699899937576
  0.3749999464409617  0.8333299447943854  0.0018699899937576
  0.4999999886561249  0.6666700318690679  0.0018699899937576
  0.6249999407690242  0.8333299447943854  0.0018699899937576
  0.7499999829841874  0.6666700318690679  0.0018699899937576
  0.8749999350970866  0.8333299447943854  0.0018699899937576
  0.0000000000000000  0.2222199683821562  0.0864100026098289
  0.1249999521128992  0.0555599860957249  0.0864100026098289
  0.2499999943280624  0.2222199683821562  0.0864100026098289
  0.3749999464409617  0.0555599860957249  0.0864100026098289
  0.4999999886561249  0.2222199683821562  0.0864100026098289
  0.6249999407690242  0.0555599860957249  0.0864100026098289
  0.7499999829841874  0.2222199683821562  0.0864100026098289
  0.8749999350970866  0.0555599860957249  0.0864100026098289
  0.0000000000000000  0.5555599783168760  0.0864100026098289
  0.1249999521128992  0.3888900080300730  0.0864100026098289
  0.2499999943280624  0.5555599783168760  0.0864100026098289
  0.3749999464409617  0.3888900080300730  0.0864100026098289
  0.4999999886561249  0.5555599783168760  0.0864100026098289
  0.6249999407690242  0.3888900080300730  0.0864100026098289
  0.7499999829841874  0.5555599783168760  0.0864100026098289
  0.8749999350970866  0.3888900080300730  0.0864100026098289
  0.0000000000000000  0.8888900002512240  0.0864100026098289
  0.1249999521128992  0.7222199606033073  0.0864100026098289
  0.2499999943280624  0.8888900002512240  0.0864100026098289
  0.3749999464409617  0.7222199606033073  0.0864100026098289
  0.4999999886561249  0.8888900002512240  0.0864100026098289
  0.6249999407690242  0.7222199606033073  0.0864100026098289
  0.7499999829841874  0.8888900002512240  0.0864100026098289
  0.8749999350970866  0.7222199606033073  0.0864100026098289
  0.2485972885618059  0.4501421387800155  0.1698683792925632
  0.5024474932273479  0.4489133601096414  0.1719243692709061
  0.1186940084887912  0.6179279432139695  0.1725167897624054
  0.8659737629993068  0.2881987413563581  0.1733342402200272
  0.0022363871006783  0.4468810797836332  0.1700324606202221
  -0.0051138060199436  0.1196296902725934  0.1699859597321650
  0.1198030067877283  0.9505749799397968  0.1699771855610306
  0.3653545370368723  0.9500158144806207  0.1694434974214845
  0.8764710951213747  0.6197788710357418  0.1706823496073390
  0.5047168140931032  0.1179532959946090  0.1711778335404500
  0.2531451032353979  0.1172641747898459  0.1704520764630422
  0.2450480548629905  0.7815163896850225  0.1727169328221430
  0.7466352436723200  0.1115708114469885  0.1736157531799859
  0.6240120274968483  0.2843125879067985  0.1715539206369854
  0.3721448679906223  0.6167821158369301  0.1680363499202821
  0.0014731668179535  0.7834672427339583  0.1688932938881227
  0.7418439760601599  0.7821878110156044  0.1695336111865303
  0.6156858084939688  0.9478132699815836  0.1709854686001410
  0.8710468233788718  0.9477993641464493  0.1730893359499458
  0.7517536852645332  0.4534190971262370  0.1678171885372376
  0.3720143040885523  0.2802685207310503  0.1752667315272303
  0.1259670033771688  0.2778897833692385  0.1714731282434426
  0.4887818926363670  0.7852903855617465  0.1702334983635715
  0.6257255302466379  0.6212236901472208  0.1738401767101707
  0.3722019184015458  0.5115581750506337  0.2537541079990768
  0.1199114374020183  0.5099310171753708  0.2593224307293355
  -0.0063009892610182  0.0092231615372674  0.2577154141081779
  0.8673814551600080  0.1850605936611508  0.2621543669633519
  0.7507392075022632  0.3468486679407271  0.2551068510841568
  -0.0001532325684927  0.6785045445271605  0.2603751444082662
  0.6241915622226936  0.8471897498474291  0.2593002191188788
  0.2490330965890405  0.6807987175960025  0.2593509275385337
  0.7564417343990603  0.6802833235011030  0.2597533010727306
  1.0026536818247331  0.3459559489364916  0.2577864665777265
  0.1185806360176056  0.8423817324501660  0.2558833083711615
  0.6162138170056639  0.1845164114995852  0.2582336351999522
  0.2477556458183654  0.0176576189050236  0.2558730491162138
  0.3667357264635711  0.1771898383370201  0.2628433746566104
  0.8753886674034449  0.5112884726209481  0.2556964525589299
  0.4950611166052719  0.0149755413732797  0.2583435348503636
  0.3724161241722412  0.8521515146291203  0.2595941950178564
  0.4899404059767541  0.3496367428767160  0.2560736032087755
  0.1128386240111037  0.1714477223782730  0.2579128029546701
  0.7458044825252449  0.0167456214994456  0.2603112481910312
  0.8744247515537998  0.8453123133732702  0.2552802418973939
  0.2436801739191181  0.3514000811581199  0.2549304684697900
  0.6167099363799106  0.5147403586277415  0.2641397662468611
  0.5006073108390393  0.6805346342349873  0.2593249537995920
  0.8947711391446256  0.5791830228676138  0.3321034855460560
  0.9968900135228268  0.5899410928035216  0.3720824741935413
  0.3219163579980592  -0.0357628020418805  0.4385928189536947
  0.2234783485000812  -0.0460476797438845  0.4791817801966473
  0.8331280068314068  0.6771409484936352  0.7378124470192102
  0.6971680562916684  0.6399380539880487  0.7330666653109642
  0.7521480713437955  0.4820788636963724  0.8773413358440177
  0.6933911802229220  0.5229503964336059  0.9193706324304824
  0.4468464897674508  -0.1576820990568210  0.7742576735959723
  0.3470036635873746  0.7740778723668325  0.7791184867447075
  0.2083402924755520  0.5342877643011698  0.9096023257842814
  0.0716845212370895  0.5593518136084695  0.9041747392010470
  0.1976190790142376  0.6278106601639745  0.7456772639180433
  0.1809458944666237  0.6958734077681393  0.6992798903289453
  0.5265685207199213  0.0513807239965391  0.3829044027078305
  0.5398954598237891  0.1360898474593056  0.3484183749735423
  0.4902108560404475  0.2079686759623942  0.8694638714888431
  0.5375371896335662  0.1199694030082514  0.8977487073106104
  0.5939159197415841  0.0924164054345127  0.8048807895985046
  0.6561623653897658  0.0458449391922884  0.7564885447110248
  0.6879914599327612  0.2033570001170139  0.8822704771859134
  0.8006684228131451  0.2366790869519869  0.9155359918806024
  0.6027494854284524  0.3793510495177016  0.6723650358294387
  0.4678507918903609  0.4160706173607652  0.6749382548670468
  0.5854783463149571  0.2239729118047676  0.4392822749123906
  0.5162546607475853  0.1901456794788431  0.4865146809962035
  0.6642391487718684  0.7636199928502588  0.3448064867517496
  0.7358573026635249  0.8501009796163187  0.3613575217802653
  0.5732878928635499  0.6461248795803783  0.5572760448261417
  0.6755850207314223  0.5916686674681610  0.5877658223693795
  1.1168936153503795  -0.0641715170944857  0.3372592458324402
  1.0934284962810024  0.0067787063374929  0.3849396986713601
  0.6195822461764373  0.4724386601466300  0.5437707309350246
  0.6341762199319212  0.3780698149306001  0.5123388474957014
  1.2014445950422354  0.1562719968057952  0.7443927361751440
  0.2913426286110669  0.2145940310506516  0.7154465708108422
  1.0743037159607445  0.3677226417442802  0.7702015953647449
  1.1960949539508303  0.3072346332175422  0.7577183862312911
  0.9411795969555323  -0.0411815530344085  0.3700022602336822
  0.8283136008046703  -0.0102621573733083  0.3378808155901825
  0.3341995407170839  0.3263727286173276  0.8797557859242714
  0.4555295111048942  0.3563811535699269  0.9078822745878800
  0.1714936489271432  0.3564709758237368  0.8437145855663908
  0.1538515185980256  0.4027178918362229  0.8991578059358393
  0.4348437670862134  0.8369763710588113  0.8604634644166927
  0.4306159778502407  0.8800351706358410  0.9175478705306734
  0.1712107723646553  0.6612448574131619  0.4806355934886545
  1.0742237969825155  0.7050436775997381  0.4415624318566045
  -0.0743214107659475  0.4553258371103060  0.3622915221547348
  -0.0334903574237174  0.3643727106511760  0.3354412484606897
  0.0789724118497767  0.4356221350176493  0.4110587101455299
  0.2114243107413937  0.4152852301992414  0.4172705093746776
  0.8236722599990380  -0.0164641712392117  0.7540947588318785
  0.8120957592570427  0.0186717769979067  0.7003668324937024
  0.8994398816075179  0.5988303680982118  0.8930574969924080
  0.9736899750439125  0.6924168636978421  0.8943989301627531
  0.7645120534302712  0.3623249208402766  0.6378276145461518
  0.6626516626971493  0.3660218484876711  0.5944716094127604
  0.5486230512372587  0.7644055786620122  0.4995413003475169
  0.4440466009360783  0.7537385722733408  0.5388672784505201
  0.3730694080606499  0.5007815252491593  0.6253460239920553
  0.2539647010723691  0.4439659210267140  0.6224421742026749
  0.4111119645701678  -0.0708345377506061  0.6822292267994025
  0.5333005948565041  -0.1111260480377343  0.6653999334906527
  0.8886305589532661  -0.0881073300852119  0.5836989198931325
  1.0204344643109069  -0.0629230926377581  0.5662368859940204
  0.4315968135355158  -0.0740967726190128  0.3428966382659109
  0.5349201047174948  -0.1180419936134492  0.3749949346283589
  0.9146568791628955  0.5127631394565715  0.7624411731567162
  0.8623828578863807  0.4124315445882104  0.7760177066928228
  0.8985171697845092  0.4155008221930019  0.6855442469464105
  0.9561050673111450  0.3294660497874612  0.6495647667560027
  0.2667043195876787  0.3193989621883995  0.4927989650962634
  0.2832680155852695  0.2191644754594417  0.4998343569774906
  0.8072074426855129  0.6024668313530751  0.6693205283998485
  0.8320543668683795  0.5123919994777437  0.6295508841227004
  0.6920404833936303  0.3948048974249868  0.8189988007869073
  0.7785015546671449  0.3289532063365398  0.8559136154526303
  0.7120134066418906  -0.1628055573014860  0.5196247910287329
  0.6812752173135919  -0.1061507645599650  0.4704632625342762
  0.2078570672218399  -0.1489341648085333  0.5400923032603454
  0.0947505954445916  -0.1844779308415307  0.5072257081582883
  0.7730147296350760  -0.0069468028924856  0.4192003500497132
  0.6471170696631006  0.0370563154743446  0.4359252395321032
  0.3891444553600420  0.6006045469043718  0.8839232431949288
  0.2742250028697701  0.6511509708022193  0.8686412113463521
  0.5962155820131473  -0.0630832066926843  0.8822492214090738
  0.6883588516620481  -0.0074969056077382  0.9192269308963245
  0.2907372265254193  0.5540622812054844  0.8040760730491356
  0.2197593788588177  0.4734120335023673  0.7756539019812025
  0.8457050208272716  0.7749872561901575  0.5805870068719228
  0.7429712704257183  -0.1725741981155700  0.6171172050976389
  0.5108182558882698  0.1725548771473120  0.7340827667584970
  0.4968636718556316  0.2668961736410554  0.7018271652883122
  0.4888258203823632  0.4240084124693884  0.8178669087633318
  0.5297824376267768  0.3938411193192510  0.7657760590430999
  0.3426168359263937  -0.0130433805132979  0.7614716090312389
  0.4762170027470882  -0.0010892015117735  0.7568243954288981
  0.6772446253250262  0.6497261260406892  0.8832301938057814
  0.6282602936256302  0.7412780744058408  0.9073616568794022
  0.1263875901316038  0.2408228259787505  0.9016652037625614
  0.0555783712758811  0.1498418468638701  0.9054787932011535
  0.9729786420420756  0.1873984161643675  0.6508603758904032
  1.1032500913548340  0.2021464791159610  0.6599570578649002
  0.9579038299770072  0.0085517401303881  0.8224238720598978
  -0.0668483809044085  -0.0925888378914446  0.8064518363469377
  1.0314428742787478  0.2508408250668574  0.5752791333244542
  0.0850913675157898  0.2510001843480165  0.5199942287022289
  0.1112904994167727  0.0106704146966926  0.7659243139724781
  0.2084251093948333  0.0418182736518045  0.8036265644969255
  0.9280006934657319  0.0460758702160032  0.6340068222109209
  0.8171314005988479  0.1081677357367868  0.6373707462628030
  0.4830855405918872  0.1481033018096612  0.6444007307534994
  0.4904673318016241  0.0452566457484366  0.6288370082830397
  0.9889303316022292  0.3682360663927816  0.5284954734665708
  0.0380661131697935  0.4496459862834515  0.4994080494111729
  0.4623215181139291  0.3966258563210047  0.5177741678304643
  0.3571268395887247  0.4336136386244623  0.5445123528076620
  0.4874594458222022  0.6814133422526401  0.7674833924117667
  0.5180378285856714  0.5678903752035533  0.7714103316209265
  0.9855307247595047  0.8391847210969368  0.9194184371242714
  -0.0792238369375535  0.8271980171779381  0.8667181886431156
  0.5071947964128801  0.6120118141139985  0.6323215072177990
  0.4603840072239768  0.6194623765028534  0.6906520007917566
  0.9462112627331625  0.6277331672365457  0.8053203933650231
  1.0231478557977538  0.6589993911957466  0.7567667924973119
  0.3459140657294984  0.0685769562552065  0.5222482439894229
  0.4142964482029242  0.1289274967560890  0.5558980987661012
  0.1590751196148024  0.5857456503656892  0.3422059303405362
  0.1503416932147553  0.5615098488935751  0.3968794071942151
  0.7072555930723108  0.2261933772734718  0.6155932106882027
  0.6425444827415686  0.1302099374497244  0.6044939239884659
  0.3809713003893703  0.6633153116407632  0.4878543917710073
  0.3461521010171555  0.5612741835091315  0.4946653645405537
  0.9414960848701432  -0.2071291348824631  0.3452914527683024
  1.0262201448211710  -0.1628795591037236  0.3841626764577249
  0.6893059090266948  0.7808127366263935  0.6940101253407356
  0.7101655942947518  -0.1163677857572989  0.7035287865576076
  0.2294657789269286  -0.2434427409359445  0.9201713380940714
  0.1483231559987592  0.7948476318114818  0.8754922685786316
  0.2467873997079724  0.0668948066763884  0.8796701998868188
  0.3243020895112613  -0.0188186882688831  0.8626007639998443
  1.0407625497982600  0.5277231715322350  0.6400135175759076
  1.0562441335800086  0.4891830903273313  0.5855822338557465
  0.8722846115203617  0.6417726687833637  0.5886148496058887
  0.9810258288757665  0.6479667273248849  0.5530171260720917
  0.8023313173287357  0.4767774460237922  0.4388348860926763
  0.8250853872994999  0.4869133846618526  0.4920926171446574
  0.8870845732965810  0.2641875905712390  0.3780597669709441
  0.8326608492441319  0.1744792966550112  0.3526058772389973
  0.9059810389038134  0.0564989925733165  0.9041541253761095
  0.8666865780662538  0.1434547552747809  0.8724636363187985
  0.9905875637311393  0.1428359815958529  0.3917318040707120
  1.0746050211302838  0.1246360465235609  0.3443085684356682
  0.4005393365719868  -0.1630185910076734  0.6068338200243415
  0.2850734443950540  -0.2313938699131151  0.5972188179447702
  0.2865002445699183  0.6633394630071482  0.6363229101868211
  1.1863632223069549  0.6167104918862643  0.6031627870220616
  0.7626459412592469  0.8931617265482320  0.8372045376404382
  0.7525459759074580  0.7822424900600674  0.8420145959491041
  0.5450962863580443  0.3156126487211949  0.3550492154795251
  0.7339691043191945  0.4325550678058928  0.3405658814240821
  0.6839380216141285  0.5947050414437973  0.3487094075965652
  0.3430163294434823  0.5268620748146211  0.3384883210594751
  0.5466533589181136  0.6041058585726216  0.4073447244332970
  0.3367092766244631  0.5363213079496946  0.4028226445836698
  0.4837270830830761  0.6526985843049466  0.3537635266776806
  0.5994030841708612  0.3907082585341318  0.4069916088888503
  0.5505315207258785  0.3851380720047117  0.3701255149280198
  0.6375618983702225  0.4517216489619300  0.3437172574738043
  0.4256638686865646  0.4212385632619277  0.3790894058301833
  0.6081819477821133  0.5447674166250732  0.3439365723476158
  0.3997845253263284  0.5216748405657324  0.3727092475980285
  0.5065950901688837  0.5858553944353405  0.3717266187847916
  0.9068306544722295  0.5778185579196726  0.3683691468943771
  0.2751907336312991  0.0010160000812989  0.4618605350784953
  0.7642389444938175  0.6737381371117016  0.7144354719718555
  0.7450107423261066  0.5447457131927294  0.8924646890160238
  0.4308264665060950  0.7821280026266145  0.7896721590760332
  0.1314951853123857  0.5097356007065335  0.9173538204013136
  0.1644257280441142  0.6920667491464719  0.7342213732985646
  0.5181527602044542  0.1196062483732959  0.3834591102715727
  0.5433082762530951  0.1516046293130532  0.8644958466291141
  0.5824923028633092  0.0765621168684232  0.7688485979432621
  0.7767471530851076  0.2199206084545517  0.8825778175256018
  0.5369142097945669  0.3934457119606394  0.6965320553135290
  0.5919283464749688  0.2214585370233574  0.4754248055606417
  0.6776011432788244  0.8036364200054344  0.3748084301021200
  0.5981418062880473  0.5840569812028618  0.5722996345301818
  1.1147293736821320  -0.0622660730187844  0.3735349795262738
  0.6133484169985914  0.4067144650505952  0.5437440507317837
  0.2056080857528390  0.2062661923546359  0.7193801956382018
  1.1598023789937164  0.3530314850363825  0.7812773433503878
  0.8542896827850482  -0.0465812141837815  0.3663339431372631
  0.4258764215402366  0.3290010926806722  0.8765553951450871
  0.1732564968846253  0.3432504675430850  0.8794510277000843
  0.4454293926333179  0.8973194273706764  0.8820300270178640
  1.0892905664564250  0.6915883352692069  0.4783831520210738
  -0.0425143594985705  0.3929642920975570  0.3706617753309975
  0.1463275408257625  0.4570106462716675  0.4309434300520880
  0.7605670557633206  -0.0138179923564485  0.7271869562161886
  0.9734330072162516  0.6284285332027134  0.8800674167059481
  0.6838822075234003  0.3377394459326671  0.6287055558681341
  0.4885277334764803  0.7208703249921127  0.5124858799772913
  0.3404571278436631  0.4385366275888158  0.6175662894660046
  0.4592439951220761  -0.0885001113904424  0.6510482265601505
  0.9419065527979393  -0.0357250018232875  0.5702911870126419
  0.4551087100242039  -0.0749080298737023  0.3771501194908294
  0.9256366832296871  0.4424045985079487  0.7549799294047115
  0.9093308979439094  0.3913403502682444  0.6504570785082292
  0.2239375607615914  0.2610679933650856  0.4850081802948316
  0.8058657585694465  0.5777214618907199  0.6333375039348460
  0.7670909709191777  0.3920913857486424  0.8408252722893398
  0.6715312202287190  -0.1668556635898729  0.4886860116804586
  0.1324520548406156  -0.1303048141658029  0.5218363766090626
  0.7141504441209999  0.0000279559760655  0.4468463113489644
  0.3133976902992712  0.5887078550389344  0.8643005352109276
  0.6797531916779876  -0.0311463433246083  0.8847985655083197
  0.2538343469644106  0.5342663915340631  0.7714474651574237
  0.7936527808585150  -0.1707841902223791  0.5850503969499433
  0.4656916550469740  0.2020550771003618  0.7042071140662425
  0.5509388269742400  0.4389108740022259  0.7928879519950167
  0.4135420934423661  -0.0452270910056365  0.7478815330081174
  0.6539130614537721  0.7160769702915203  0.8746594940849853
  0.1299463694895260  0.1781056135025914  0.9184951266931991
  1.0411790453783047  0.2268819728111625  0.6393623223312371
  0.9667788885944114  -0.0354746502010110  0.7935107486153195
  1.0115243465511707  0.2567184097312299  0.5405538729961158
  0.1869860660104436  0.0472827960501945  0.7687068982003842
  0.8850467857048446  0.0820198717515029  0.6579865271943002
  0.5039807309003606  0.1060060028453909  0.6146467387541534
  0.9784213399048075  0.4364497779684348  0.5238674494568115
  0.3795142206909329  0.4227087763857603  0.5092054455394671
  0.5188907952374913  0.6241332552840623  0.7491191716839514
  -0.0098031782791873  0.8027309044375478  0.8883972238783759
  0.4313485630478381  0.6099278686573200  0.6544111031504359
  0.9435227555634517  0.6257475479351075  0.7672389499350595
  0.3848416133708953  0.1314348834538475  0.5219235857264768
  0.1351552799268280  0.6150149845915768  0.3755002656603081
  0.7269460116371576  0.1600112581488541  0.6064153637551924
  0.3167505497447593  0.6178042585870104  0.4815488370339028
  0.9738856221539487  -0.2155666818716676  0.3785787206835162
  0.6765101277068747  -0.1624015815633527  0.6780480350905730
  0.2205587557474708  -0.2430174795898802  0.8848667412817525
  0.2405994041282218  0.0099233271953970  0.8617850998605293
  1.1052020669649159  0.5149587208627662  0.6134429522822582
  0.9032089509187715  0.6749174171596640  0.5592775049946530
  0.7608392161842307  0.5017423227066925  0.4682290259449151
  0.8464469158503100  0.2053851687578192  0.3851918615246649
  0.9367307377241249  0.0962518368634011  0.8741404050743885
  1.0633584850787343  0.1090176064621913  0.3810418668086333
  0.3443883277544730  -0.1853924766160424  0.5795409401194275
  0.2075908001107029  0.6734540785406594  0.6209779382270509
  0.8021036904473838  0.8330268331485148  0.8269256334824759
  0.3422244599835906  0.3709818739770113  0.3930850164688328
  0.8042505049682139  0.6908411174869316  0.4461893791694968
  0.8433082488674128  0.1117064094278577  0.5216606978989498
  0.2682056321544192  0.2000789431670488  0.3882576148043885
  0.2845093496653192  0.7858979929753200  0.3754861962816225
