1-pos-1
1.000
11.0985002518  0.0000000000000000  0.0000000000000000
0.0000000000000000  14.4173002243  0.0000000000000000
0.0000000000000000  0.0000000000000000  26.7964000702
Pt  H  C  O  K  
96  168  6  81  4  
Direct
  0.0000000000000000  0.0000000000000000  0.0018699899937576
  0.1249999521128992  0.1666699702868031  0.0018699899937576
  0.2499999943280624  0.0000000000000000  0.0018699899937576
  0.3749999464409617  0.1666699702868031  0.0018699899937576
  0.4999999886561249  0.0000000000000000  0.0018699899937576
  0.6249999407690242  0.1666699702868031  0.0018699899937576
  0.7499999829841874  0.0000000000000000  0.0018699899937576
  0.8749999350970866  0.1666699702868031  0.0018699899937576
  0.0000000000000000  0.3333300219343480  0.0018699899937576
  0.1249999521128992  0.4999999922211510  0.0018699899937576
  0.2499999943280624  0.3333300219343480  0.0018699899937576
  0.3749999464409617  0.4999999922211510  0.0018699899937576
  0.4999999886561249  0.3333300219343480  0.0018699899937576
  0.6249999407690242  0.4999999922211510  0.0018699899937576
  0.7499999829841874  0.3333300219343480  0.0018699899937576
  0.8749999350970866  0.4999999922211510  0.0018699899937576
  0.0000000000000000  0.6666700318690679  0.0018699899937576
  0.1249999521128992  0.8333299447943854  0.0018699899937576
  0.2499999943280624  0.6666700318690679  0.0018699899937576
  0.3749999464409617  0.8333299447943854  0.0018699899937576
  0.4999999886561249  0.6666700318690679  0.0018699899937576
  0.6249999407690242  0.8333299447943854  0.0018699899937576
  0.7499999829841874  0.6666700318690679  0.0018699899937576
  0.8749999350970866  0.8333299447943854  0.0018699899937576
  0.0000000000000000  0.2222199683821562  0.0864100026098289
  0.1249999521128992  0.0555599860957249  0.0864100026098289
  0.2499999943280624  0.2222199683821562  0.0864100026098289
  0.3749999464409617  0.0555599860957249  0.0864100026098289
  0.4999999886561249  0.2222199683821562  0.0864100026098289
  0.6249999407690242  0.0555599860957249  0.0864100026098289
  0.7499999829841874  0.2222199683821562  0.0864100026098289
  0.8749999350970866  0.0555599860957249  0.0864100026098289
  0.0000000000000000  0.5555599783168760  0.0864100026098289
  0.1249999521128992  0.3888900080300730  0.0864100026098289
  0.2499999943280624  0.5555599783168760  0.0864100026098289
  0.3749999464409617  0.3888900080300730  0.0864100026098289
  0.4999999886561249  0.5555599783168760  0.0864100026098289
  0.6249999407690242  0.3888900080300730  0.0864100026098289
  0.7499999829841874  0.5555599783168760  0.0864100026098289
  0.8749999350970866  0.3888900080300730  0.0864100026098289
  0.0000000000000000  0.8888900002512240  0.0864100026098289
  0.1249999521128992  0.7222199606033073  0.0864100026098289
  0.2499999943280624  0.8888900002512240  0.0864100026098289
  0.3749999464409617  0.7222199606033073  0.0864100026098289
  0.4999999886561249  0.8888900002512240  0.0864100026098289
  0.6249999407690242  0.7222199606033073  0.0864100026098289
  0.7499999829841874  0.8888900002512240  0.0864100026098289
  0.8749999350970866  0.7222199606033073  0.0864100026098289
  0.2431112657011833  0.4548000499946834  0.1711916690369731
  0.4968682244347057  0.4544556355118921  0.1753039701935208
  0.1260053612985403  0.6207267021960423  0.1695585906240012
  0.8656937630326901  0.2839137831437328  0.1719473395093855
  -0.0037015467466730  0.4546829695792284  0.1748287689774380
  0.0035995990623617  0.1233721128177700  0.1722826730197249
  0.1168266163610450  0.9540280409516005  0.1707386309882726
  0.3729396785055448  0.9580432798034925  0.1717299633474853
  0.8758715300496055  0.6197688562689162  0.1739271113093668
  0.4967282537481484  0.1238457074709833  0.1710312009558601
  0.2486231963865999  0.1179523423417207  0.1712406626815134
  0.2470956318314475  0.7885239217630267  0.1727831256389151
  0.7513811682031105  0.1174325625713467  0.1701882367539216
  0.6239318229665239  0.2907161112963160  0.1722889432537698
  0.3733352146501052  0.6191782773971765  0.1723330663970615
  -0.0081142260717068  0.7821992883170011  0.1711515314477005
  0.7418935269262702  0.7896229401266239  0.1709574590840108
  0.6260440274237161  0.9565874095452994  0.1704739406984792
  0.8724887801060796  0.9552801800913248  0.1715810857822322
  0.7522365625252813  0.4560534276048370  0.1732326595116906
  0.3712523127736782  0.2899936921028497  0.1689809670268221
  0.1204562367229012  0.2876736116869878  0.1723015146364599
  0.4937371444318590  0.7880743147354173  0.1708154696678940
  0.6239962431750007  0.6160320804883025  0.1754437333553705
  0.3646969841932963  0.5181018732626601  0.2607581864390282
  0.1281454094456896  0.5158974642397813  0.2591464069504830
  0.0060262229564894  0.0165260926867858  0.2567416121597207
  0.8768919939269807  0.1908665693013691  0.2572730291546414
  0.7562498080620171  0.3480541762140934  0.2585440299835131
  -0.0047303394250485  0.6834655512473680  0.2551040834138800
  0.6237380546598872  0.8644332048793901  0.2601714892051157
  0.2443090158564661  0.6885016432875144  0.2642962912348823
  0.7514075188174606  0.6906130850919026  0.2580937172113352
  1.0044980187113033  0.3569650425553149  0.2633430705734097
  0.1249701682058397  0.8493768510390137  0.2575395814482812
  0.6305545295424039  0.1862250379495276  0.2632231013539781
  0.2531630545076851  0.0265445795361164  0.2598318759781091
  0.3812910781088351  0.1856232703463686  0.2545487082641952
  0.8712089003045095  0.5147562530113248  0.2621960756778461
  0.5058810742910435  0.0242076418795632  0.2625336733542616
  0.3668243297863346  0.8597421712428701  0.2572907409517021
  0.4960038699199193  0.3560479774186872  0.2583123844085948
  0.1349232022639399  0.1870676775291296  0.2618589452209066
  0.7571254562468631  0.0231911527122432  0.2599156246157664
  0.8749566076213836  0.8582749807376501  0.2608062826607827
  0.2436883111987460  0.3541421588553969  0.2604449252032648
  0.6189958469916516  0.5259397180215242  0.2732272172575215
  0.4981967914992159  0.6979291664427103  0.2599981199619401
  0.8957258649778101  0.5962769135243831  0.3485680458468496
  0.9802415100757028  0.6552451625011971  0.3780042873880111
  0.3563783146699049  0.0349185138803921  0.4211050105625542
  0.2738574444242641  0.0042065272177506  0.4668344152172763
  0.8191361095680971  0.6764257252937589  0.7260736520327219
  0.6805121927510051  0.6608630820520077  0.7101676505592628
  0.7109221643906652  0.4938903815291620  0.8488130821533236
  0.7129903703896043  0.5286711771288005  0.9080734766331761
  0.3725509182764949  -0.1801707920198436  0.7751046653090584
  0.2940407539722069  0.7287411341820842  0.7730307189522937
  0.1602757322018805  0.5490230451786486  0.8987183597277981
  0.0212485303283885  0.5518181897322786  0.9061255803425081
  0.1921158387552581  0.6210309223226793  0.7343199185805086
  0.1982050330848288  0.6896639400795140  0.6888108097597244
  0.4834654096016047  0.0977114598769062  0.3760765685651589
  0.5190837024097602  0.1873922717684944  0.3511895899056026
  0.3756150500175817  0.1855384752889737  0.8804074116372125
  0.4051499165728027  0.2590812785117927  0.9217368011857592
  0.5806950761797521  0.0648951854469290  0.8017587175223738
  0.6460415775399135  0.0291602435309911  0.7508389125513543
  0.6064226771458098  0.2541534925605607  0.8877843015732539
  0.7172141117633452  0.2900328645547799  0.9224003933195315
  0.4591192974180079  0.3631610468356056  0.6712931857852256
  0.3229720333086130  0.3911473163328540  0.6874230813893992
  0.6592189540486252  0.2556195286194045  0.4627782482502488
  0.5887662013378988  0.2114880163805455  0.5062445633130432
  0.6203356733431974  0.8012799662539383  0.3373168526861950
  0.6681140018082528  0.8777882696629807  0.3782934902839112
  0.5853161104218951  0.6540707113184813  0.5336477810279711
  0.6893331138735794  0.6020603855755139  0.5694566069070527
  1.1384341600074135  -0.0717354369202099  0.3307438380596566
  1.1035202686969947  0.0030088769620601  0.3728533388263235
  0.5820862132568086  0.4738198845152837  0.5358529803064263
  0.5707946559781867  0.3704671921236437  0.5171995152144540
  1.1673510704924990  0.1230988765641918  0.7395263218486532
  0.2677299968180913  0.1843633380693544  0.7151917204136952
  1.0332603734130772  0.3600790741424721  0.7744726009326633
  1.1292060997491467  0.2739298545953496  0.7645517790609360
  0.8065325370288874  -0.0376462657471193  0.3615232792285928
  0.7084608401684516  0.0211048242504621  0.3502541882458896
  0.3502746021355007  0.3600407956790002  0.8654767478222273
  0.3928437977368051  0.4387345823622893  0.8991756481347445
  0.1303117547044646  0.3194157710843946  0.8476137613036645
  0.1208167741206772  0.3920009302625451  0.8916866639848485
  0.3455025506782410  0.8688917523952182  0.8576630627917203
  0.3743125657024008  0.8786453439631450  0.9126637654397980
  0.2115993234688733  0.7056483848031925  0.4802794586281882
  1.1100812261820556  0.7388354898406220  0.4400548501555489
  -0.1309154889341334  0.3768318819457602  0.3956692040954763
  -0.1132610596459760  0.3401082129881273  0.3390799556170451
  0.0465306428601689  0.4061982759316742  0.3895260119514291
  0.1895991379608899  0.4216904040780758  0.3959569221501330
  0.8705670908673429  -0.0004769037540337  0.7426275100374509
  0.8627512822056338  0.0514908552468632  0.6916919553015788
  0.8631491375914805  0.6033397575184599  0.8733390529060470
  0.9375048238983904  0.6938851914132016  0.8767025464374125
  0.6825050881060700  0.3570321290961341  0.6436278791038096
  0.6035547293530584  0.3666638801549036  0.5941296635403299
  0.5876288662553544  0.7846540789122852  0.4978890384883115
  0.4509741867680047  0.7735975483538575  0.5266475889682696
  0.3192099301457800  0.5011552172453153  0.6415314894674095
  0.1862558543948079  0.5172511564357103  0.6393731510283472
  0.4269649919259553  -0.1030947267848940  0.6781604041547796
  0.5614725497248467  -0.1139153045680396  0.6534727330210854
  0.9398124025548711  -0.0441295262567712  0.5569288124338940
  1.0639011575086441  -0.0281893504870627  0.5358597948300011
  0.3910611221183771  -0.0186408640882034  0.3366767683743074
  0.5057977592773910  -0.0615737307948792  0.3637097909669796
  0.9194905022095140  0.5149667698177158  0.7480589779330902
  0.8464013885098104  0.4338443771433421  0.7718652473061702
  0.8645733174933944  0.4062236531655743  0.6858973235154725
  0.9024832484348981  0.3364228169102649  0.6372998079951617
  0.2838045432029568  0.3215451153043518  0.5049227642987275
  0.3546816300663302  0.2354660453333818  0.5170515747937401
  0.7956735157137819  0.6178897072341797  0.6436477944729860
  0.8066761996917540  0.5090477954693722  0.6273568750637977
  0.6613572638077434  0.3963274187471829  0.7892914462312751
  0.7339175855475560  0.3431777985770719  0.8324379671919681
  0.7489945166106393  -0.1355943296793569  0.5330957009589602
  0.6816748295944747  -0.0637480987772538  0.4916856137572088
  0.2580455738274653  -0.0888370346232549  0.5389147213718329
  0.1939394038623289  -0.1230800689236640  0.4899566378993090
  0.6737675995445617  0.0341278927847179  0.4398254823492802
  0.5928648556756885  0.0589935649995314  0.4853418491711201
  0.3583097112112100  0.6478900914858020  0.8559427036658962
  0.2184457128436608  0.6739996574269715  0.8687497075433182
  0.5982072304700112  -0.0323269091334074  0.8721608104474597
  0.5720600980993167  0.0550815927909663  0.9013441896868847
  0.2581957019404714  0.5571520811823842  0.8034075869557398
  0.1798731101957878  0.4818323239875018  0.7829050003746798
  0.8859938734429645  0.7933569488357762  0.5526737485931805
  0.8151703153795661  -0.1524028629296774  0.6052042926294076
  0.4733159496976207  0.1433092491073734  0.7215223789407954
  0.4342478868005930  0.2300892308955897  0.6920971728521285
  0.4539998983630964  0.4506900281127691  0.8114973759733727
  0.4427768490704860  0.4057313930274357  0.7596461852253601
  0.2999438160899353  -0.0531805594162291  0.7456312813234868
  0.4401920689065763  -0.0393122134506649  0.7525151914650264
  0.5906941724794528  0.6258256164279937  0.8724124144122586
  0.5300550694357015  0.6635732090585983  0.9188287657744405
  0.1016430627658041  0.2338884411116383  0.9103995633327592
  0.0182639816733008  0.1412589675539535  0.9072423267905982
  1.0002350813840433  0.1944291905828090  0.6367488673553249
  1.1014184743039894  0.2561402535251220  0.6586742101536426
  0.9109388884286693  0.0424071054627487  0.8247658634630561
  -0.0757919801879154  -0.0626439088628919  0.8243550533814347
  1.0556128162090996  0.2719654412475395  0.5781739287520783
  0.1347363177882953  0.2445832617508115  0.5293397951642888
  0.0832727393099900  0.0026569036299485  0.7784348567663519
  0.1938993848516588  0.0467954838217817  0.8033653620935555
  0.9845993914743318  0.0531407388332443  0.6052079855582988
  0.8649849696802977  0.1148915435504447  0.6211812045122882
  0.4581862564516556  0.1029127923825308  0.6409648239354641
  0.4659350625740010  0.0106547404306036  0.6169689710927131
  1.0313782119474673  0.3742970118430761  0.5176418780642751
  0.0659455110325648  0.4467058509779139  0.4745821516877018
  0.3729271706263854  0.4537766270395915  0.5316086457838021
  0.2537750067846513  0.4598080981782333  0.5627761389736351
  0.4551060882555558  0.6697525758480782  0.7420168829846702
  0.4863830029038843  0.5674310685929551  0.7408304700964943
  0.9653606107602106  0.8792943683820322  0.9046153835662999
  -0.1650808021744068  0.8507089212602906  0.8809060410002983
  0.5024679138873342  0.5879614166258769  0.6061162360224001
  0.4564238843422504  0.6069082350627707  0.6627540114632813
  0.9667634675198412  0.6463713130627035  0.7945811683815887
  1.0169001821367332  0.6663611340289235  0.7371890543188386
  0.4077813237483139  0.0992129634083034  0.4960819205742207
  0.4788048922500273  0.1024098378981830  0.5510764815540308
  0.1448837415432963  0.6632355638945061  0.3361291492851179
  0.1601662821435446  0.5920806218013300  0.3807140865069140
  0.6853320602363731  0.2221775427830160  0.6143176855277163
  0.6619789964692245  0.1144103233225198  0.6120317419218765
  0.3707736028777949  0.6396740269135771  0.4978385497063685
  0.2760963495318231  0.5589891337988900  0.5013279993882302
  0.9203455428082165  -0.1626047229944415  0.3513275862331061
  1.0225661558064458  -0.1315136182850808  0.3814658059523331
  0.7293602833668585  0.7908622520173401  0.6690630952229318
  0.7516192397028675  -0.1000676875527885  0.6793979568974289
  0.1665908157275697  -0.2015030832196638  0.9136229090834467
  0.0873905284763765  0.7975619420908809  0.8629801158446208
  0.2017164347801776  0.1065648175870317  0.8816559656859784
  0.2972459661083449  0.0232749184299027  0.8824409206965356
  0.9675045505412760  0.5533985543598804  0.6040917076619532
  1.0470687096407711  0.5153942910875865  0.5614873621525125
  0.9461416241980032  0.6504561955152959  0.5450780409060740
  1.0141747032689832  0.7095322406727972  0.5047182668742360
  0.8576427875609808  0.5271178428948186  0.4267530728844895
  0.8811560763819344  0.4533600848016849  0.4697793371095181
  0.7942626113262760  0.2424737482755535  0.3936598725823274
  0.6975124211619923  0.1589170087155650  0.3927273042882828
  0.7838959835486770  0.0660981455108922  0.8930098455766711
  0.8154554967489575  0.1678278438581575  0.8802892169285313
  0.9317872347502792  0.1257292027632733  0.3919652620831171
  1.0003099595730911  0.1103857226485183  0.3412896546193319
  0.4170660821086417  -0.1431080182697781  0.6032171098712572
  0.3016084903595064  -0.2002973406860720  0.5851308117255981
  0.3035000331196731  0.6576939501903440  0.6093376206962315
  1.1572991182855414  0.6598960216812664  0.6059072451398438
  0.6581968916669840  0.8536755163394382  0.9205585412248208
  0.6326159648607740  0.7876688799307686  0.8760076935410824
  0.5818564577184794  0.3317699489352376  0.3670924898281153
  0.7610736980728605  0.4528335235119919  0.3430313469577704
  0.7181147534242199  0.6140709996853694  0.3499268311726627
  0.3708544782284851  0.5488605398577113  0.3457399307305853
  0.5803355386197694  0.6036644792712961  0.4214962899386097
  0.3528176216119766  0.5513250734352331  0.4099408010449969
  0.5050574507209563  0.6745601900283790  0.3716394808187259
  0.6335659639201775  0.4096394393900296  0.4105085314961077
  0.5830428597729249  0.4056792150476269  0.3750711209181087
  0.6649291594603628  0.4722680989831844  0.3449149157195360
  0.4565505349588300  0.4330775144902800  0.3834896278932629
  0.6396122074195292  0.5679704483990919  0.3498084166807276
  0.4255152300360648  0.5361615653720849  0.3811840600245137
  0.5357501443887114  0.6046291411763426  0.3833546999032892
  0.9003446652154087  0.6222324950464547  0.3809910971829957
  0.3115321961937372  0.0614690950117208  0.4527455616992305
  0.7567981035669900  0.6898148927243326  0.7002768624681138
  0.7184645229797390  0.5508580223649744  0.8715174040624666
  0.3739517942910247  0.7503438799288263  0.7789939782700147
  0.0939401851102276  0.5152723765631849  0.9143747841131976
  0.1577027041753803  0.6795954167470156  0.7188725218773845
  0.5157092128796161  0.1616284691895663  0.3843460213207338
  0.4323959502385638  0.2348632437016760  0.8884199144524234
  0.5664095308985970  0.0460792853352858  0.7654221376105509
  0.6973494711724469  0.2613769115557808  0.8881272978069241
  0.3907362794172730  0.3463518293517708  0.6934362249227798
  0.6434884132873466  0.2653879471033747  0.4970768139938652
  0.6126420928266630  0.8171625289555219  0.3740392303870089
  0.6140753547664842  0.5936991990687071  0.5505933007362314
  1.1481160389065532  -0.0570221829267564  0.3674784455898185
  0.5285612268602319  0.4206990437139551  0.5366288164017800
  0.1781312891333551  0.1833363615710052  0.7236462856913627
  1.1054265148852189  0.3256172929719185  0.7896609498651237
  0.7360683909139054  -0.0158471431922403  0.3786195957636438
  0.3768864370050002  0.4252956689328918  0.8653802275996144
  0.1310839697160027  0.3269341307435286  0.8863456316400165
  0.3889231711104334  0.9077942056058873  0.8796625428844057
  1.1626014656986936  0.7633540504310576  0.4657423156358649
  -0.0955284265843080  0.3281845787552592  0.3738153126598411
  0.1102684326922024  0.4337698553547073  0.4118684709881489
  0.8178023080576095  0.0069784336411629  0.7121924364692306
  0.9400322185069953  0.6321204158764395  0.8654663423050956
  0.6075124249248430  0.3364208564600031  0.6267587399875183
  0.5082288446662140  0.7433757759539452  0.5004546488956757
  0.2445955587611693  0.4652907614279568  0.6393190709207133
  0.4740230061757000  -0.1042964852577319  0.6449265784182261
  0.9932405874579465  0.0077710156864989  0.5454254054354740
  0.4261341699057904  -0.0271495162208155  0.3705933477028387
  0.9086272324645369  0.4447525836697576  0.7452609577772641
  0.8406689948479116  0.3831548974536395  0.6509007667711619
  0.2834696861938399  0.2546842113415363  0.4985996544647156
  0.8150076559067506  0.5738602591805084  0.6158102156808424
  0.7334673759979199  0.3969393765869128  0.8111611224364649
  0.6915185290152394  -0.1315952381571576  0.5037988303851757
  0.2048371233790163  -0.0687909278415650  0.5107324304214963
  0.6744111667687767  0.0368230991684004  0.4755736476397848
  0.2734338600846379  0.6206776875893540  0.8585772414998984
  0.6250781673564281  0.0328365863535304  0.8753414626536038
  0.2435361165993247  0.5249053794998871  0.7715788360054023
  0.8630188291473494  -0.1462260013942630  0.5730021115849611
  0.4237481919809168  0.1602997012301039  0.6933498995434774
  0.4931575021239754  0.4483622098196165  0.7786655568859130
  0.3770756450288194  -0.0813125345287674  0.7383780524609970
  0.5333386142186185  0.6723724399913203  0.8819399976484830
  0.0980675652841904  0.1610475620107116  0.9188383232186991
  1.0270196588274496  0.2573485734552735  0.6396800794731553
  0.9304716956982678  -0.0121431021256617  0.7979872376207735
  1.0531551932076877  0.2681994424436521  0.5388946060840112
  0.1699987975937561  0.0181198581520615  0.7705928042835748
  0.9436279465688590  0.0874444679160596  0.6336805790410512
  0.4854030802338608  0.0751590104625578  0.6093949783523336
  1.0156775826149826  0.4400520280424441  0.5064103496309204
  0.2853948028506184  0.4581974134356863  0.5294840361813610
  0.5135361918810277  0.6258106228857468  0.7256222061381873
  -0.0778543917823367  0.8542863222922168  0.8749958783745313
  0.4290906739699029  0.5888831805617906  0.6271324541720269
  0.9456096567099597  0.6386621987645446  0.7585038125738170
  0.4826199129590760  0.1179792927481043  0.5144854375544149
  0.1396239641611646  0.6563133265791044  0.3725556276905329
  0.7258068284490552  0.1608451299981576  0.6093896254318061
  0.2953355103783861  0.6165709287663530  0.4837085199184839
  0.9404651470100351  -0.1639747929376828  0.3878439064976399
  0.7154052060783861  -0.1432560951889506  0.6541737408299997
  0.1726307095942323  -0.2133361451969996  0.8774877443014867
  0.2631297931922258  0.0747762009757512  0.8605185080343479
  1.0509538938748308  0.5531580701189991  0.5912434342633603
  0.9341034350220980  0.7015576458241571  0.5223321179685437
  0.8322927004035409  0.4659324788477277  0.4388161848343473
  0.7784879865816754  0.1775235907403923  0.4041588215852894
  0.8590898054585021  0.1058025247146479  0.8840965620507388
  1.0087901321157493  0.1023800255620789  0.3773306503564430
  0.3704237225865934  -0.1692262419830727  0.5708055396407522
  0.2319016269412236  0.6965841218644394  0.6172954791003962
  0.6874349989101110  0.8408883491214544  0.8837064057546465
  0.3773867905098893  0.3759288044973171  0.3900872009977414
  0.7824532542215858  0.7385850750927960  0.4418072965467424
  0.8590967403324269  0.1523340314990655  0.5085753648735655
  0.2355318032160285  0.2157237746119702  0.3998399615295798
  0.3260428450693708  0.8035215878264383  0.3836313156755788
