1-pos-1
1.000
11.0985002518  0.0000000000000000  0.0000000000000000
0.0000000000000000  14.4173002243  0.0000000000000000
0.0000000000000000  0.0000000000000000  26.7964000702
Pt  H  C  O  K  
96  168  6  81  4  
Direct
  0.0000000000000000  0.0000000000000000  0.0018699899937576
  0.1249999521128992  0.1666699702868031  0.0018699899937576
  0.2499999943280624  0.0000000000000000  0.0018699899937576
  0.3749999464409617  0.1666699702868031  0.0018699899937576
  0.4999999886561249  0.0000000000000000  0.0018699899937576
  0.6249999407690242  0.1666699702868031  0.0018699899937576
  0.7499999829841874  0.0000000000000000  0.0018699899937576
  0.8749999350970866  0.1666699702868031  0.0018699899937576
  0.0000000000000000  0.3333300219343480  0.0018699899937576
  0.1249999521128992  0.4999999922211510  0.0018699899937576
  0.2499999943280624  0.3333300219343480  0.0018699899937576
  0.3749999464409617  0.4999999922211510  0.0018699899937576
  0.4999999886561249  0.3333300219343480  0.0018699899937576
  0.6249999407690242  0.4999999922211510  0.0018699899937576
  0.7499999829841874  0.3333300219343480  0.0018699899937576
  0.8749999350970866  0.4999999922211510  0.0018699899937576
  0.0000000000000000  0.6666700318690679  0.0018699899937576
  0.1249999521128992  0.8333299447943854  0.0018699899937576
  0.2499999943280624  0.6666700318690679  0.0018699899937576
  0.3749999464409617  0.8333299447943854  0.0018699899937576
  0.4999999886561249  0.6666700318690679  0.0018699899937576
  0.6249999407690242  0.8333299447943854  0.0018699899937576
  0.7499999829841874  0.6666700318690679  0.0018699899937576
  0.8749999350970866  0.8333299447943854  0.0018699899937576
  0.0000000000000000  0.2222199683821562  0.0864100026098289
  0.1249999521128992  0.0555599860957249  0.0864100026098289
  0.2499999943280624  0.2222199683821562  0.0864100026098289
  0.3749999464409617  0.0555599860957249  0.0864100026098289
  0.4999999886561249  0.2222199683821562  0.0864100026098289
  0.6249999407690242  0.0555599860957249  0.0864100026098289
  0.7499999829841874  0.2222199683821562  0.0864100026098289
  0.8749999350970866  0.0555599860957249  0.0864100026098289
  0.0000000000000000  0.5555599783168760  0.0864100026098289
  0.1249999521128992  0.3888900080300730  0.0864100026098289
  0.2499999943280624  0.5555599783168760  0.0864100026098289
  0.3749999464409617  0.3888900080300730  0.0864100026098289
  0.4999999886561249  0.5555599783168760  0.0864100026098289
  0.6249999407690242  0.3888900080300730  0.0864100026098289
  0.7499999829841874  0.5555599783168760  0.0864100026098289
  0.8749999350970866  0.3888900080300730  0.0864100026098289
  0.0000000000000000  0.8888900002512240  0.0864100026098289
  0.1249999521128992  0.7222199606033073  0.0864100026098289
  0.2499999943280624  0.8888900002512240  0.0864100026098289
  0.3749999464409617  0.7222199606033073  0.0864100026098289
  0.4999999886561249  0.8888900002512240  0.0864100026098289
  0.6249999407690242  0.7222199606033073  0.0864100026098289
  0.7499999829841874  0.8888900002512240  0.0864100026098289
  0.8749999350970866  0.7222199606033073  0.0864100026098289
  0.2445747115840958  0.4491921480267596  0.1723679287963970
  0.4994587572767747  0.4539660229221436  0.1763141874514018
  0.1276184127103377  0.6187810922299877  0.1744671343931427
  0.8837996085109932  0.2875151368293893  0.1712559784440384
  -0.0017727700368173  0.4515170397525700  0.1680067980215970
  0.0010244995037195  0.1163901974706553  0.1703902859950815
  0.1301952010106635  0.9521065904602452  0.1718522794045458
  0.3803784431338206  0.9532948884934043  0.1726094827134546
  0.8692980971402205  0.6147505467883343  0.1678483456440808
  0.4990649276150337  0.1190086655758260  0.1686620378095537
  0.2547326022758328  0.1146078790961867  0.1738483555065548
  0.2550454477793896  0.7841893841916532  0.1702995758551510
  0.7582872718802779  0.1182236025179781  0.1700249376805933
  0.6281037493123823  0.2819374058985691  0.1709324784112993
  0.3725524727658051  0.6189385940482665  0.1720854812370169
  0.0002199810014514  0.7872500658597525  0.1691415407751140
  0.7500403502941694  0.7837266632039362  0.1711526026587559
  0.6252910558590541  0.9589495742550693  0.1730025938318288
  0.8775986026598793  0.9530703082773009  0.1746613173052640
  0.7465174425126735  0.4534509015273986  0.1711608281852976
  0.3752298942665326  0.2859731206714315  0.1707514182208524
  0.1249062066989789  0.2765348224059456  0.1706486928774187
  0.5043983491816457  0.7872506737128085  0.1701172940715083
  0.6176126637820544  0.6165491992542304  0.1719007999221001
  0.3706971518005547  0.5203745429296741  0.2622097383004014
  0.1226202501350832  0.5136128295517637  0.2606675670239710
  -0.0056755456386807  0.0185425659271086  0.2603441751699422
  0.8664163249030382  0.1877901559777953  0.2580735393479436
  0.7550004295617329  0.3489992341297935  0.2551421878419869
  -0.0039970524749779  0.6893396362759406  0.2541765400970581
  0.6219452040450689  0.8590448616118301  0.2585621492047042
  0.2585019750425015  0.6881387782837614  0.2598958598563729
  0.7517143042319536  0.6813700237956277  0.2528803077744698
  0.9947991788899010  0.3546248644099549  0.2609530096013307
  0.1189896343234140  0.8515221450898285  0.2587335979697609
  0.6193281137408821  0.1805709002377662  0.2558386620269934
  0.2426366987975023  0.0183442311865182  0.2610041165595942
  0.3718056202531283  0.1897429016210155  0.2567651295164682
  0.8850196740777624  0.5180492048373526  0.2585092744530104
  0.4869074064960774  0.0250848039212251  0.2587940433615209
  0.3634180303456629  0.8523696550473033  0.2636114445819019
  0.5032905568925023  0.3449771739869198  0.2561606792187577
  0.1141699088482243  0.1885290388431216  0.2633707956707382
  0.7511547176788973  0.0183748000373532  0.2592599601961439
  0.8647853095505752  0.8545216128630744  0.2630310243963824
  0.2434273362170561  0.3512093697796216  0.2608339152867348
  0.6291273642100941  0.5148816753700096  0.2683629024369290
  0.4998783030617329  0.6888794920189169  0.2574776522676580
  0.9355540769317909  0.5814957428346851  0.3412761188085868
  1.0044337098241736  0.5903420274799223  0.3886973118856805
  0.3890791925242023  -0.0152800925743846  0.4498425507874585
  0.2804331485774594  -0.0028436838494144  0.4823119924259116
  0.8397074428942348  0.6893192908925863  0.7321243563241656
  0.7005421890168470  0.6598898871138631  0.7245834067798004
  0.7411092621605340  0.4452417848371240  0.8668854768567658
  0.7569620730636527  0.4560353883744711  0.9238571701812641
  0.4151527324831771  -0.1805930380163402  0.7676791872232435
  0.3564279044331624  0.7431259342398960  0.7996346978611173
  0.1965245925679243  0.5282518711695744  0.9023785705562324
  0.0506445864889573  0.5293491609501768  0.9096954008500912
  0.2296579903024839  0.6038576183789431  0.7513025453217059
  0.2107630900328742  0.6993191732670271  0.7180656523223937
  0.4967144943845826  0.0421526060111928  0.3831741338575770
  0.5484709223944697  0.1164307852361104  0.3463892059188353
  0.4953514377682126  0.2521312641373182  0.8673401592009643
  0.5788848704722971  0.2576709908099573  0.9171832618267280
  0.6028689340088843  0.0566506545048836  0.8047139250648998
  0.6407257796968282  0.0400086846653709  0.7522347888295861
  0.7263011299110127  0.2275336196627808  0.8721206054536107
  0.8043705900220286  0.2660071764223947  0.9136548134026000
  0.5476210435292176  0.3814932428700982  0.6536502575574985
  0.4105969974421477  0.3882206072858383  0.6601402348247584
  0.5662031717466361  0.2254927111540986  0.4863055228784968
  0.6306008649740688  0.2563507594487542  0.4371763866791889
  0.6418738468690511  0.8130213525375286  0.3393464327102850
  0.7163621809812138  0.8712057570272207  0.3765934367513226
  0.5614838776788178  0.7231951768630273  0.5699475011938053
  0.6727512204803571  0.7555644982158159  0.6025979468509809
  1.1111985901608501  -0.0246707493265973  0.3530575248248034
  1.0870812217031984  0.0490670081356613  0.3976531355064393
  0.7054353671010833  0.4842895500803794  0.5038762307820412
  0.6470960665370284  0.3832680471401009  0.5030937725023815
  1.1737529784249221  0.1391601254455677  0.7315323823963825
  0.2992566791771111  0.1640877534902594  0.7076163554852641
  1.0268799621779181  0.3716903912819907  0.7653330527150520
  1.1372093803622720  0.2977352164009898  0.7481174042700571
  0.9576195336461143  -0.0440805402754146  0.3844926141425198
  0.8634758001691032  -0.0690200053629191  0.3379947057728938
  0.2936223714885693  0.3428244320853752  0.8772389589653022
  0.4022249093138503  0.3769691646387199  0.9176074179398710
  0.1097525484582879  0.3291473574852606  0.8378865843650773
  0.1267191134830948  0.3934978706303141  0.8852919276937390
  0.4308072280598946  0.8238929822921631  0.8622047292686043
  0.4553138153581098  0.8451396845827699  0.9203672933450096
  0.1449956871099775  0.7019031905116155  0.4767482973359208
  1.0333231336405131  0.7600162376955711  0.4592158085885810
  -0.0492461800603516  0.4390526026870843  0.3724746370539431
  0.0297451083398821  0.3619611636791987  0.3450402876348380
  0.1067464089761007  0.4186664493485684  0.4194914949116932
  0.2443464511126336  0.4315375599804488  0.4211043531906702
  0.8597770464844924  -0.0174203656435402  0.7628880049575787
  0.8336306201731594  0.0173886225853476  0.7072955819754836
  0.8631419225896170  0.5598451674812017  0.8909652337983550
  0.9273316747126082  0.6604434503660557  0.8901690754060295
  0.7786946919065347  0.3824305652875937  0.6322397601213883
  0.6982162504292605  0.4093618464192420  0.5845684300489356
  0.5043516586479481  0.8288958440955424  0.5186325078589661
  0.4005422736805384  0.8009216679997829  0.5580423788913967
  0.4085496479008152  0.5248065284960357  0.6395263820664435
  0.2683828912755046  0.4926334436615953  0.6327182046723882
  0.4379238919881753  -0.0435306075434433  0.6869915385004401
  0.5519810226617271  -0.0872691497108009  0.6650929836437159
  0.9069799687815870  -0.0390380249869095  0.5673163163064588
  1.0408240608028563  -0.0042918699296910  0.5615516067262422
  0.4285888526270511  -0.0776954443462307  0.3494031563296525
  0.5129984938169103  -0.1137193625153633  0.3843358430094947
  0.9275662945838452  0.5209465139555740  0.7574718710470613
  0.8568521530877712  0.4331482213691089  0.7655576429765883
  0.9149572155258613  0.4296137520296890  0.6839605062465843
  0.9814731104802513  0.3613099532615800  0.6475541978751510
  0.2977011718375316  0.3392761381881741  0.5030283075296462
  0.3315083478691893  0.2319162342034354  0.5122306162447721
  0.8480238755838705  0.6378518244005352  0.6648605921141193
  0.8447611517852991  0.5556775414163212  0.6242165263498081
  0.6825949046468084  0.3895423165589714  0.7931830863667712
  0.7899705494873555  0.3328009759422875  0.8219853716878620
  0.6913531794852700  -0.0906410753170987  0.5326739295616684
  0.6590958749866791  -0.0522372752584173  0.4794722585026738
  0.2279327501199742  -0.0971827672727838  0.5521763973196854
  0.1419403618470439  -0.1203495315354193  0.5083065668528937
  0.7820682369667268  -0.0128031365531866  0.4150954835634748
  0.6872478549309357  0.0663488279995532  0.4098324012863581
  0.3847944369697491  0.6062802066067398  0.8790038207443511
  0.2681459661108119  0.6623824177777825  0.8858204444632639
  0.5830452153975055  0.0011478036693797  0.8958251864397110
  0.5847473659377945  0.1019609248840050  0.8830829263747212
  0.2765735298426621  0.5209955914173034  0.8206950826524161
  0.2345487403469502  0.4416838381618136  0.7833048890489767
  0.8462292127962774  0.8293731344892321  0.5672214227127919
  0.7739623184769372  -0.1310287256497581  0.6188820507364601
  0.5196927811273017  0.1530272034969098  0.7303887422648829
  0.4825051775109426  0.2470508812112176  0.6994526095892890
  0.4784918407726949  0.4467070171463184  0.8022889222275872
  0.4993862857191992  0.4349128361516408  0.7470003827962178
  0.2955281851769160  -0.0395732707874370  0.7536756922344781
  0.4450887183697491  -0.0221318749305224  0.7589448217567313
  0.6106581076484470  0.5729407425585505  0.8839343375098077
  0.5446651457452192  0.6281607333067598  0.9223386652927940
  0.1234379572030745  0.2362646544502673  0.9007452750805213
  0.0548065255034209  0.1303384140834341  0.9057712245866930
  1.0035335316493450  0.2040147171758581  0.6411538392392635
  1.1411965504479622  0.2357069951676750  0.6575779069590703
  0.9454931061246866  0.0082794773184239  0.8433760528203416
  -0.0186507479572682  -0.0921127326225517  0.8317580068931120
  1.0576067239441929  0.2754233500185571  0.5653324295694072
  0.1379520131066075  0.2790709594656686  0.5150324161023393
  0.1137303550536286  -0.0153839406233748  0.7896784543097047
  0.2196934986062240  0.0377741202948725  0.8162731717655216
  0.9278608899999664  0.0596285587679603  0.6261117832524873
  0.8366799030431138  0.1392902477063803  0.6445793517730191
  0.4802706199097047  0.1620510892158685  0.6388365620327235
  0.4981035169687376  0.0595675908345522  0.6277316536263542
  1.0141213556196100  0.4100643359590609  0.5307144806930723
  0.0831479287167952  0.4712724314742423  0.4900928948401830
  0.4584335119220112  0.4564130773880371  0.5177407246142990
  0.3649234858775750  0.4715571940397801  0.5609614948246967
  0.5273275769805754  0.6885870633925855  0.7606001345033614
  0.5489577897799187  0.5766901753551908  0.7625920253342254
  0.9071235243759332  0.8216620733772063  0.9187783631458613
  -0.1839112687292105  0.7999758905873782  0.8781616046578292
  0.5303784544173271  0.6363899802777030  0.6350491390753813
  0.5024641489011602  0.6226225019071374  0.6915358874309303
  0.9685228380345046  0.6174857990607073  0.8069618179588034
  1.0522651966968168  0.6450104199554814  0.7620056872157155
  0.4013073033248475  0.1144539959096342  0.5038690780376613
  0.4709755018253249  0.1399062459003440  0.5535479373737119
  0.1870125317304360  0.6004737803967269  0.3514279964297351
  0.2123846171123623  0.6036931371679599  0.4070348103113163
  0.6997608811641401  0.2640514235587291  0.6092925064981738
  0.6572555621122719  0.1625817185210074  0.6010961737921157
  0.3395520952471759  0.6763999302146376  0.4867646324815693
  0.3251439471576117  0.5619013912775290  0.4938368358858897
  0.9167636427227925  -0.2883248357618097  0.4019657302317478
  0.8899797599408115  -0.1755818251626169  0.4032254951483621
  0.7241614736005892  0.8116854818058129  0.6909693206659833
  0.7508626395218081  -0.0844785614124322  0.6995541177542991
  0.2208817484688900  -0.1748526539144326  0.9032136270877581
  0.1038983779554344  0.7771039672681833  0.8821657945422505
  0.2566214400579107  0.0512691291712272  0.9085938343365793
  0.3632214627959486  -0.0237868986609558  0.8844855333966173
  1.0323132250811848  0.5597032200938156  0.6208068966248957
  1.0945926423734353  0.5242624376483762  0.5731714425170308
  0.9036413131380923  0.6800797614919651  0.5763777993662685
  0.9838497166974493  0.7254240787031815  0.5332840443814639
  0.8503527070938584  0.5578376968071002  0.4373357633450400
  0.8951946085948549  0.5406512727509256  0.4900555159722240
  0.8568942726885636  0.2928027373658276  0.3942303736854588
  0.7968884474788024  0.2297654808434036  0.3539996081693521
  0.8719140466416221  0.0619817279169816  0.9148210800734262
  0.8883137131975137  0.1454050370239678  0.8778244503058890
  0.9467477133854958  0.1764476358418563  0.3822913719366461
  1.0325550523586644  0.1502775286699139  0.3407319215484401
  0.3711765935160367  -0.1013709367886150  0.6203515617228926
  0.2730228928281151  -0.1874986067394077  0.6205848335759633
  0.3223862782739231  0.6926276657310048  0.6457277769875770
  1.1868810796272777  0.6656275111081651  0.6193714366302983
  0.6139706560528169  0.8280326872141294  0.8667239684082928
  0.6369332119854230  0.7127653390875361  0.8697184367506741
  0.5754091430294164  0.3218253962749311  0.3509368738623185
  0.7613698965704429  0.4235031369610292  0.3375008780398650
  0.7339017888546677  0.5983481033543396  0.3431729728474443
  0.4164683179738953  0.5383293066630185  0.3294927303992182
  0.5925419960533338  0.5769427640190422  0.4207265276441984
  0.3560406119159322  0.5398328340684799  0.3905974047625824
  0.5452104872835066  0.6560722826842049  0.3698793410732214
  0.6352015649733067  0.3710338227460838  0.4019399965922218
  0.5860833488871661  0.3892809297638454  0.3689356914585808
  0.6696157363599367  0.4548117979223373  0.3415478396099230
  0.4598175632218712  0.4239326615463300  0.3800081282121266
  0.6549963491077099  0.5499798457991109  0.3475385626503110
  0.4368695986210961  0.5238334755608992  0.3709152676987113
  0.5546855687732732  0.5818015994396941  0.3798382674327653
  0.9227393418348635  0.5792611331436349  0.3781069119716415
  0.3381906754916059  0.0315227309988314  0.4636831059153261
  0.7701429398277252  0.6930366686170001  0.7086538119841659
  0.7358214435752723  0.4903576299107866  0.8942011223644624
  0.4334522458040928  0.7697916792211944  0.7919459306737247
  0.1252773797319598  0.4915456262647178  0.9165258548148215
  0.1942313588406130  0.6689012458203305  0.7527770473405029
  0.5337576376987725  0.1025105886266413  0.3828424989112141
  0.5705953284609718  0.2248089613918937  0.8831169997053778
  0.5644301671015437  0.0598317073917965  0.7692396396418689
  0.8125902682245141  0.2472151164330110  0.8761945918888784
  0.4897561483244944  0.3745364923384729  0.6818868192007711
  0.6349333613212397  0.2624789124264585  0.4726695786157318
  0.6474875541345797  0.8310599188539644  0.3756929674704943
  0.6312869537903271  0.7000288973166625  0.5901596503325369
  1.1052981234027961  -0.0192204143278465  0.3909404154235637
  0.6398846123779839  0.4494745841789274  0.5161566338823799
  0.2182815058374300  0.1875291231116241  0.7069942824696228
  1.1006657567916711  0.3328616360510731  0.7764751825018078
  0.8766560910805961  -0.0696866594833486  0.3763113753258998
  0.3793072138208265  0.3622399695747175  0.8831981559836205
  0.1390138245074847  0.3290232118704676  0.8735773407836451
  0.4576145756879442  0.8711437075112862  0.8878433163922541
  1.1037663112196821  0.7597241258691904  0.4838025995371414
  -0.0181461756391218  0.3732151969292331  0.3777517000038002
  0.1653192689978473  0.4633757150829092  0.4300479307672163
  0.7939620091976723  -0.0079647322115452  0.7386319223122524
  0.9349977962938734  0.5940046087523160  0.8811702704781927
  0.6926036517279273  0.3933906139750498  0.6188930440713569
  0.4567403524073324  0.7732148610327805  0.5295983122554596
  0.3523325195461253  0.4713349976125599  0.6264111654858837
  0.4844381409035884  -0.0470784302428546  0.6530242617425362
  0.9594548199855183  0.0181758680004684  0.5666129468818114
  0.4351774734353572  -0.0816704431884833  0.3862998991089007
  0.9180830222576648  0.4554578832472652  0.7431049135941408
  0.9162297552185742  0.4087193037409404  0.6474402962095539
  0.2685970995690634  0.2773535896797313  0.4999748895859803
  0.8856961169871349  0.6132527411337358  0.6316996241530461
  0.7680583851243770  0.3949000759382071  0.8097042572792897
  0.6361212402328847  -0.1022786193710962  0.5047063322076702
  0.1901565147739415  -0.0652766336247738  0.5216913364809179
  0.7332615600995395  0.0291578080403337  0.4353638012209648
  0.2978599995764159  0.5989541907052343  0.8758071945865240
  0.6322776084419064  0.0422867445093799  0.8772137969771906
  0.2840145331878308  0.4928706776892419  0.7870586633073280
  0.8121275917201669  -0.1165522405691310  0.5846317565889019
  0.4636867149023458  0.1826520772981862  0.7051108053843510
  0.5386913518815621  0.4561357073022522  0.7765272183572342
  0.3795051363554180  -0.0549082762156627  0.7408569949654371
  0.5530775672509860  0.6260273472413050  0.8859033551450786
  0.1301172640389668  0.1709954336072444  0.9135206100286177
  1.0707086823801011  0.2530953634613076  0.6357420701053464
  0.9587316185422694  -0.0332834908779392  0.8121707158008394
  1.0462285913285254  0.2909476026815321  0.5289334445137732
  0.1905800855802076  0.0206475682803819  0.7808730632802433
  0.8993387175606172  0.0922902018824126  0.6551920437635472
  0.5074885976766564  0.1225578805886170  0.6121370357483833
  1.0309960722976248  0.4749909463255624  0.5215929642222153
  0.3740178585774928  0.4665619894120360  0.5238169299020783
  0.5614200528210506  0.6334966606858912  0.7424166982199978
  -0.0927259816147766  0.8004298781577396  0.8845240720360350
  0.4654144852195010  0.6222738882123537  0.6572835720902320
  0.9649746308437525  0.6297869411705929  0.7700699447366471
  0.4507472055955177  0.1634419134262295  0.5197670787050630
  0.1659477865129835  0.6383667155579995  0.3810849161323102
  0.7294402162658875  0.2011971172183063  0.5999617816603231
  0.2878921788988376  0.6199592444870496  0.4785889500605699
  0.9011625622009520  -0.2326658786744427  0.4255518158866961
  0.7168544102352623  -0.1283792175861320  0.6735168875900910
  0.1921976547375439  -0.2238199271845068  0.8803341325364804
  0.3053860657569751  0.0342806168083384  0.8781609569551544
  1.1120556087565343  0.5501357634858502  0.6076094364931789
  0.8989255879128294  0.7170622668296375  0.5455782304451496
  0.8195409619623899  0.5492946224808540  0.4720237185130814
  0.7986181384878994  0.2406722257716229  0.3899324593686742
  0.9238774862519844  0.0815692711120676  0.8883328406330341
  1.0304347084774104  0.1473938771988897  0.3773918693931682
  0.3141810092435213  -0.1391203091837802  0.5999557658037312
  0.2319497805014232  0.7127146978725624  0.6416361350837106
  0.6748841939779393  0.7796539564428581  0.8617686335927155
  0.3846817687378593  0.3719960911933078  0.4006934147113538
  0.7064820339512388  0.7222866526597286  0.4801824551802179
  0.8465107882099908  0.1750718189904761  0.5073752368371220
  0.2885216643195247  0.1878349114999778  0.3889195276528880
  0.2308632296137891  0.8194827323971912  0.3894159855339896
