1-pos-1
1.000
11.0985002518  0.0000000000000000  0.0000000000000000
0.0000000000000000  14.4173002243  0.0000000000000000
0.0000000000000000  0.0000000000000000  26.7964000702
Pt  H  C  O  K  
96  168  6  81  4  
Direct
  0.0000000000000000  0.0000000000000000  0.0018699899937576
  0.1249999521128992  0.1666699702868031  0.0018699899937576
  0.2499999943280624  0.0000000000000000  0.0018699899937576
  0.3749999464409617  0.1666699702868031  0.0018699899937576
  0.4999999886561249  0.0000000000000000  0.0018699899937576
  0.6249999407690242  0.1666699702868031  0.0018699899937576
  0.7499999829841874  0.0000000000000000  0.0018699899937576
  0.8749999350970866  0.1666699702868031  0.0018699899937576
  0.0000000000000000  0.3333300219343480  0.0018699899937576
  0.1249999521128992  0.4999999922211510  0.0018699899937576
  0.2499999943280624  0.3333300219343480  0.0018699899937576
  0.3749999464409617  0.4999999922211510  0.0018699899937576
  0.4999999886561249  0.3333300219343480  0.0018699899937576
  0.6249999407690242  0.4999999922211510  0.0018699899937576
  0.7499999829841874  0.3333300219343480  0.0018699899937576
  0.8749999350970866  0.4999999922211510  0.0018699899937576
  0.0000000000000000  0.6666700318690679  0.0018699899937576
  0.1249999521128992  0.8333299447943854  0.0018699899937576
  0.2499999943280624  0.6666700318690679  0.0018699899937576
  0.3749999464409617  0.8333299447943854  0.0018699899937576
  0.4999999886561249  0.6666700318690679  0.0018699899937576
  0.6249999407690242  0.8333299447943854  0.0018699899937576
  0.7499999829841874  0.6666700318690679  0.0018699899937576
  0.8749999350970866  0.8333299447943854  0.0018699899937576
  0.0000000000000000  0.2222199683821562  0.0864100026098289
  0.1249999521128992  0.0555599860957249  0.0864100026098289
  0.2499999943280624  0.2222199683821562  0.0864100026098289
  0.3749999464409617  0.0555599860957249  0.0864100026098289
  0.4999999886561249  0.2222199683821562  0.0864100026098289
  0.6249999407690242  0.0555599860957249  0.0864100026098289
  0.7499999829841874  0.2222199683821562  0.0864100026098289
  0.8749999350970866  0.0555599860957249  0.0864100026098289
  0.0000000000000000  0.5555599783168760  0.0864100026098289
  0.1249999521128992  0.3888900080300730  0.0864100026098289
  0.2499999943280624  0.5555599783168760  0.0864100026098289
  0.3749999464409617  0.3888900080300730  0.0864100026098289
  0.4999999886561249  0.5555599783168760  0.0864100026098289
  0.6249999407690242  0.3888900080300730  0.0864100026098289
  0.7499999829841874  0.5555599783168760  0.0864100026098289
  0.8749999350970866  0.3888900080300730  0.0864100026098289
  0.0000000000000000  0.8888900002512240  0.0864100026098289
  0.1249999521128992  0.7222199606033073  0.0864100026098289
  0.2499999943280624  0.8888900002512240  0.0864100026098289
  0.3749999464409617  0.7222199606033073  0.0864100026098289
  0.4999999886561249  0.8888900002512240  0.0864100026098289
  0.6249999407690242  0.7222199606033073  0.0864100026098289
  0.7499999829841874  0.8888900002512240  0.0864100026098289
  0.8749999350970866  0.7222199606033073  0.0864100026098289
  0.2556088112932109  0.4502693690985539  0.1722154539046467
  0.5036899356193065  0.4590448606005451  0.1762971961914263
  0.1282742124972342  0.6119351144210743  0.1709048487521637
  0.8872652497893057  0.2839279232945813  0.1711522851086381
  0.0053275828317804  0.4473785675926136  0.1706078854108510
  0.0111509931244925  0.1176929925091010  0.1687186994691804
  0.1363760176925277  0.9481839416064270  0.1698834017619600
  0.3878021492770571  0.9493395164186877  0.1711788041148530
  0.8775416430540176  0.6162277782511365  0.1708851004278137
  0.5077307866156137  0.1182547703991354  0.1691221049890145
  0.2523939641705816  0.1219458815761300  0.1736771343205754
  0.2514365158434279  0.7852076972788188  0.1687117630635620
  0.7563715180741228  0.1213495890410332  0.1722158909820142
  0.6287535537667122  0.2903915898930567  0.1714273278972475
  0.3815664446025652  0.6177935801106240  0.1726546984811258
  0.0045158641314507  0.7828232732628676  0.1707391008760175
  0.7512086966207731  0.7834241965470617  0.1695679658310940
  0.6347139578482700  0.9517534260798975  0.1685090979672889
  0.8806316915670531  0.9486942242103504  0.1691384998629099
  0.7523808192594053  0.4499488557966105  0.1738652552617015
  0.3782519264996319  0.2839298445003250  0.1703764441842775
  0.1331701962218088  0.2887077420628588  0.1695772072926094
  0.5018236031302262  0.7824032131957411  0.1697846429476018
  0.6342099663833788  0.6131261706544082  0.1757065808416577
  0.3843444066335161  0.5251441188232314  0.2610844752008430
  0.1322245601933464  0.5219414284594576  0.2589386738562831
  0.0017777620085921  0.0147909911136191  0.2564279083122644
  0.8846769754956378  0.1842556380647875  0.2601331348404507
  0.7594513397909765  0.3430432220981325  0.2544387806548043
  0.0079003483993956  0.6863759308987036  0.2571661510966748
  0.6273775226405676  0.8591794663623594  0.2553386946670159
  0.2493927274138767  0.6832392886080908  0.2595211067897784
  0.7511778574450074  0.6869718854024128  0.2585076054900198
  1.0046143333007262  0.3466331042046843  0.2546905738427819
  0.1423373223191839  0.8522792341169129  0.2535821238038891
  0.6366704428514107  0.1930068485159193  0.2572466119382188
  0.2601240075416295  0.0189399387785349  0.2579603998294987
  0.3737315476590887  0.1791308882190800  0.2560051571303771
  0.8735455449962816  0.5200633906938040  0.2580454108158264
  0.5078634287624443  0.0249404500222550  0.2597987843464841
  0.3900128598184224  0.8480275775899381  0.2569179353481946
  0.4950619421852865  0.3502304576615114  0.2537459566839961
  0.1325810587391169  0.1817155192817801  0.2592419118165581
  0.7592631525717474  0.0229201772564214  0.2546969273790612
  0.8840929582993551  0.8504492707333710  0.2545708027693694
  0.2475139353134199  0.3604345254627799  0.2676021182514939
  0.6338987463246650  0.5224962532723942  0.2708956497135110
  0.5081575455283083  0.6857266071866107  0.2561304460867744
  0.9117041728821812  0.5779010331391313  0.3359545249890281
  1.0377176891744546  0.6020086008107948  0.3645269773107658
  0.4057323427523175  -0.0305343772586503  0.4405486423539537
  0.2930749288195461  -0.0514602298875289  0.4723362426535652
  0.8396440000700671  0.6854255426022244  0.7365996427874903
  0.7101743398817949  0.6618243997387019  0.7207693780956393
  0.8113737574713779  0.5079998020541742  0.8477990284323457
  0.7771112581270789  0.5394202950627390  0.9028379918690859
  0.4396080204898590  -0.1705851791068886  0.7611441377934230
  0.3476223946000523  0.7537974185959395  0.7531931765918497
  0.2191900564137445  0.5135865645788417  0.9103918764158802
  0.0820402753563327  0.5567071265514757  0.9075601936636739
  0.2510450609439883  0.6375675549855796  0.7466397554367709
  0.1861614354844844  0.7011701285003115  0.7091987515828339
  0.5850730946865428  0.0775430450505362  0.3478467004665239
  0.5637281366809258  0.1845916133461953  0.3486846161619598
  0.4815326517592537  0.2756817187590319  0.8577076334316894
  0.4400639134920851  0.1690283196706004  0.8640304898361368
  0.5635011158994836  0.1320016056884465  0.8053755708066246
  0.6509775666967471  0.0582675207584357  0.7777599958838219
  0.6704616315518097  0.2478532887022194  0.8772647036398925
  0.7491776447679478  0.2788636308706129  0.9264936178688238
  0.5800000176380588  0.3856626654433121  0.6598042305041626
  0.4390486674007790  0.3760265362971741  0.6567199973503252
  0.6501854488429339  0.2419567642227808  0.4474355875487013
  0.5968519439214921  0.2993753441386466  0.4910914199155626
  0.6885944101105489  0.8121020248344362  0.3363158375151374
  0.7581197818989447  0.8819300741874752  0.3663565705087911
  0.5812892097248615  0.7289682175575475  0.5610768351387652
  0.6717901576017694  0.6628881921104630  0.5867196879361510
  1.0858771818872934  -0.0496794450664757  0.3373489405523916
  1.0639041117726669  0.0325408039647575  0.3746176271029631
  0.6281237213441858  0.5757387430352285  0.5342745310114018
  0.7073947178067315  0.4990517141394506  0.5045483465868813
  1.2077673230962911  0.1601592040171385  0.7250039980372259
  0.3305778047448312  0.2030518416732309  0.7094905769317431
  1.1218229260012602  0.3859038426710805  0.7708398957429744
  1.2380018927576810  0.3229874112457897  0.7551563464789308
  0.9117334551629063  -0.0309635568070911  0.3690790184349633
  0.8106649064265059  0.0249848850406033  0.3415096846041267
  0.3195095486640082  0.3609859363425090  0.9008749915047758
  0.4491518177955194  0.3815308551963703  0.9152205885548623
  0.1372981699804767  0.3121817989830011  0.8443533313775878
  0.1086085307160762  0.3902873919567837  0.8875991606107737
  0.3711381590708124  0.8767995944062932  0.8758945154801467
  0.3616372162580302  0.9553477067353463  0.9173808567718000
  0.2178132503360475  0.6670394080641354  0.4873482515072231
  1.1233468497401686  0.6723878516562327  0.4474814075990359
  -0.0303689800651521  0.4612902827042920  0.3622694707038513
  0.0085779518169187  0.3661413635128972  0.3388865535448852
  0.1322351791866632  0.4221343515856135  0.4073713802116153
  0.2675596365300251  0.4207464885468543  0.4335447438971339
  0.8266443935622779  -0.0125310624311960  0.7750464580724179
  0.8108347635384787  0.0561955139308571  0.7311997214390656
  0.9192234301878216  0.6147048646571619  0.8816106237633016
  0.9879198416039811  0.7150529911435299  0.8839758412527390
  0.7889461577279233  0.4017701865316632  0.6129793541770107
  0.6898509071672335  0.4538327629240781  0.5766210356697618
  0.5708060718269163  0.8376518563264057  0.5011376460390253
  0.4602230186345762  0.8548585183325057  0.5371239315241563
  0.3732025613215835  0.5165807150111981  0.6229374731855692
  0.2506999295016225  0.4756991990872542  0.6178805698946419
  0.4492587978084097  -0.0631536795124350  0.6761034192368206
  0.5609582607244862  -0.1050383169761263  0.6502737018797594
  0.9190074944356365  -0.0250775977315513  0.5270754235717972
  1.0411564619756546  -0.0406561976778464  0.5054660674872850
  0.4703119864193757  -0.0750675368454809  0.3508215313651210
  0.5624118205149077  -0.1137388112190483  0.3882887984334510
  0.9694098615040407  0.5058039526435723  0.7541913067932920
  0.9112747240294656  0.4138998725532699  0.7749693626344267
  0.9419289058721720  0.3857025836798090  0.6887114361612925
  0.9830336202614888  0.3182534238738014  0.6461050787845913
  0.3340757964841838  0.3288261265940433  0.5088610182143107
  0.3552445868945724  0.2213726178165205  0.5122300930812141
  0.8011028353815656  0.6590730839109894  0.6485948152128138
  0.7931890974703775  0.5632445247490343  0.6199869594787701
  0.7176317903680961  0.3969688911626919  0.8025744256787954
  0.8042776887942404  0.3537334836937276  0.8448140140016590
  0.7317347764697195  -0.1235868410853261  0.5183003413150765
  0.6993396531699126  -0.0393824640720879  0.4835206379049742
  0.1978549044717876  -0.1246298431846134  0.5346582812268434
  0.1633288543833666  -0.1954885503146857  0.4896764893390422
  0.7373848497388381  0.0390361186868692  0.4215902490149559
  0.6146292791130645  0.0903729769810812  0.4515517979467788
  0.4246003394229522  0.5778087895720758  0.8807805182662301
  0.3251762474046601  0.6583935481832470  0.8833555396578809
  0.5554841927133468  -0.0325569033659206  0.8782876230554929
  0.6550228088088711  -0.0163282703514229  0.9172469732392883
  0.3367035736827535  0.5632806255717892  0.8149744413685717
  0.2897665325347377  0.4712339374017485  0.7847181738745795
  0.8672264477390981  0.8061414050676953  0.5536603525261992
  0.8029114886089910  -0.1295142498630086  0.5972272776893406
  0.5033833915076867  0.1318372798324858  0.7293671640070467
  0.5278663903395272  0.2302821212742830  0.7086781749507692
  0.4816376034170069  0.4400579315679778  0.7908455139303281
  0.5580238391575075  0.3995275707230873  0.7469109990396787
  0.3127831368960856  -0.0116043528397927  0.7449791789121846
  0.4550278352771988  0.0036598954297327  0.7530079071643521
  0.6546977648643603  0.6093339352393582  0.8729471732553293
  0.5685565866321982  0.6409953194443307  0.9101725407631580
  0.1157046742772053  0.2287004866030728  0.9035362204987147
  0.0327613742713597  0.1377573379066142  0.9066578544115113
  1.0139874744495161  0.1560068833975610  0.6339966637978770
  1.1422431970521387  0.2111739805118626  0.6586217360154630
  0.9170645950248353  0.0178434698450965  0.8358594625443218
  -0.0665800875555376  -0.0838349552201744  0.8377239106257475
  1.0797470080569178  0.2573038507200895  0.5656916763105657
  0.1578055737139754  0.2648053406119150  0.5152220872181117
  0.1062354876469707  0.0145595267584290  0.7651617176219808
  0.2132167314422694  0.0801045404293836  0.7929230314458958
  0.9549710618136041  0.0173481790147117  0.6200289349791004
  0.8586543877632855  0.0907427494223191  0.6175794328844890
  0.5345056911574957  0.1309111645062963  0.6410798735239135
  0.5638351367145391  0.0286185060851109  0.6214354493691403
  1.0413153498037386  0.3895088598859123  0.5076086041507768
  0.1138143719368871  0.4693356771883784  0.4891633902113989
  0.4807251612608374  0.4444474592198564  0.5170918718521947
  0.3690004624666111  0.4508050309964023  0.5542083598279833
  0.5301251762323269  0.6767981827175801  0.7485498005646953
  0.5674672632888897  0.5652866072639269  0.7555848038788026
  0.9332516204358463  0.8470093062234825  0.9155720208097671
  -0.1580010242118612  0.8073290535687052  0.8687182002065943
  0.4829413397301771  0.6325099081470198  0.6138172659577416
  0.4900589328650863  0.6158663274996832  0.6716573816538658
  0.9772360088238926  0.6344702162185937  0.8137131966337766
  1.0445187988458049  0.6458074468829386  0.7636393115303742
  0.4135659202382395  0.0768287608614171  0.5052252070402439
  0.4968310536647241  0.1135891719338537  0.5486739999993687
  0.2082915994821079  0.6256970509426975  0.3429933352734646
  0.1858014232117134  0.5557777775199965  0.3905737620569077
  0.7822744979342506  0.2168843662511591  0.6134007579092440
  0.6854873802580779  0.1539472463061483  0.5920462912868277
  0.4197213331814361  0.6561523711530607  0.5079694827603910
  0.3785806268120375  0.5500356375831124  0.5041698724644831
  1.0406951271210494  -0.2313709066193743  0.3415456130123262
  1.0539210128596377  -0.1540060793946465  0.3821166844268413
  0.7553730564938563  0.8116188547615637  0.6810899613189639
  0.7755034953667810  -0.0853373969646759  0.6812838002147258
  0.2984449882372890  -0.2106592505357543  0.9231231957313949
  0.1992685740527254  0.7919800239267325  0.8829420695734302
  0.2256562419317708  0.1096989090186467  0.8742679681459595
  0.3417276937742007  0.0541500734294312  0.8557040879158981
  1.0363249126056122  0.4877064556059347  0.6264793416511601
  1.0854491029223692  0.5041548354697530  0.5723261519130445
  0.8824909773112377  0.6653492228130212  0.5680619209416956
  0.9997621688029810  0.6963813250332357  0.5356180765102631
  0.8420394543293657  0.5173135454742962  0.4392068375665268
  0.9106809653728460  0.5104886254914166  0.4889680583389724
  0.8729131919178680  0.2936689888072001  0.3706960187404704
  0.8248343837101141  0.2005490391277736  0.3520825248086984
  0.8454820273287044  0.0743828785151117  0.9024701076654550
  0.8320439110142219  0.1799073294477320  0.8836035595703537
  0.9856504978252200  0.1917098674508734  0.3826578789328946
  1.0804920730037477  0.1729611406091859  0.3416338097101591
  0.3610707522532220  -0.1307279939432287  0.6095128297275828
  0.2727806400967550  -0.2129367532712981  0.5999745580705537
  0.2939653935288114  0.6599862908356678  0.6438180300937429
  1.1563727847029177  0.6439659094877992  0.6285618136008926
  0.6649696431464290  0.8538432361595418  0.8584635954134083
  0.6486109192305060  0.7462078723010255  0.8610149679269136
  0.6148213331430362  0.3248360971637729  0.3559590045085040
  0.7743006457657429  0.4596541974988079  0.3473684886706696
  0.7060927096009240  0.6123962576654103  0.3449854920019860
  0.3874142685812575  0.4981552831295575  0.3356833688493614
  0.5366571451430131  0.6075781437523130  0.4149239455401598
  0.3523238138203238  0.5176867988585138  0.3986092387715376
  0.4773086505395938  0.6456047042019563  0.3588652527469234
  0.6667577330549536  0.3755249984164680  0.4066690397610065
  0.6071999122590496  0.3940897627715083  0.3750215587233168
  0.6710384287725839  0.4664066828036443  0.3516054821027188
  0.4809641943499766  0.4121040839106528  0.3891646283598036
  0.6349296229152336  0.5591530060817199  0.3502618740768020
  0.4290887837775775  0.5035558490252976  0.3740012366901939
  0.5176682544624168  0.5841717150277989  0.3749218007001123
  0.9497752655896371  0.5794109526012584  0.3692710579248396
  0.3448620219096042  -0.0018810042849972  0.4609521000560211
  0.7827502361673641  0.6984314110784845  0.7090908368109828
  0.7973694114810453  0.5630338742629689  0.8691689958234814
  0.4278219708135719  0.7666127195347788  0.7680824524966269
  0.1262819297925134  0.4983183322763068  0.9138260286362875
  0.2011574342342261  0.6903612895168972  0.7444197279687471
  0.5521532131340109  0.1292170651381751  0.3702047833370014
  0.5105055632522141  0.2092913218880065  0.8536167952290643
  0.5670877015999743  0.0817012817638811  0.7801559421651062
  0.7531032266674421  0.2683513155381937  0.8884815456191352
  0.5102171866943561  0.3524516777236438  0.6752833557043151
  0.6740231287904649  0.2881453184763447  0.4744659596174296
  0.6998992364522567  0.8272584584662821  0.3730525783094635
  0.5897824521054897  0.6640418056678729  0.5738541460724366
  1.0524585150417574  -0.0359019406162870  0.3711631203946929
  0.6346727474423933  0.5075391876883301  0.5276631242725907
  0.2428365185343753  0.2138206512481552  0.7104646279472385
  1.2047614066532484  0.3615904673895430  0.7846279134256513
  0.8266491591701347  -0.0114324437887609  0.3733016763070495
  0.4015737509018091  0.3681499228582309  0.8872469258226950
  0.1337417300917991  0.3206929499260313  0.8808581810378915
  0.3958606355383423  0.9401223902277506  0.8833647284294829
  1.1321862058670551  0.6877285783012409  0.4816799569750440
  -0.0130375471025044  0.3925656106446793  0.3724578254860153
  0.1862735004096349  0.4536990284405061  0.4314118524732758
  0.7700171190349766  0.0032376437803054  0.7465266798149688
  1.0012456604754103  0.6475906293096086  0.8824565040248523
  0.7123043304808550  0.4384248183891098  0.6143870044584359
  0.5066280762112944  0.8056403954412310  0.5202936599571355
  0.3347067243520158  0.4589363651835346  0.6105891993826275
  0.4765524453488393  -0.0881681875818548  0.6438594834605045
  0.9948978067292636  0.0119118948366311  0.5186099610131801
  0.4860941946660793  -0.0741786864642978  0.3870678740102340
  0.9756266593537150  0.4357439848211956  0.7487419233418786
  0.9241802840646397  0.3656617613202241  0.6528232286565289
  0.2945975075388879  0.2692031114437337  0.5053316375082370
  0.8018882240739329  0.6314044732630920  0.6154791889355794
  0.8010196213995818  0.4042885484257162  0.8177180246636188
  0.6902969950789041  -0.1094750320271306  0.4832412492639483
  0.1727186117591975  -0.1303681234044121  0.4996110116107875
  0.7037017956487712  0.0693355704083311  0.4546155770396765
  0.3356832503649103  0.5890624606599911  0.8770120579829288
  0.6478853404570412  -0.0225947991532386  0.8810865687013077
  0.3344568220375521  0.5305096169120912  0.7825605492403550
  0.8310380856642438  -0.1298173342360894  0.5619804418932757
  0.4831044582379868  0.1735651868567158  0.7002355106485747
  0.5618604480716798  0.4185858263482898  0.7832639809233654
  0.3947045103404427  -0.0390424369641182  0.7420365628296723
  0.5714941411269788  0.6412082521607366  0.8745570888778378
  0.1155187686275059  0.1608787382599307  0.9174187737456226
  1.0701483782616243  0.2110864317142123  0.6297632641806592
  0.9435341790888943  -0.0316161618547505  0.8150692560561171
  1.0730987313415092  0.2666718471548421  0.5290832621493318
  0.1760064787206891  0.0528058872712394  0.7603488459354059
  0.9181445872785684  0.0594844973786789  0.6413991511237994
  0.5663035606617798  0.0967633067006992  0.6104708867513898
  1.0442692169890535  0.4593351655352336  0.5114524105624652
  0.3927283643385140  0.4347614730000071  0.5176007096089188
  0.5715895762556872  0.6212207267075105  0.7335965701624667
  -0.0806370973370797  0.8313379487928321  0.8816898928440151
  0.4404880787480381  0.6042483559658947  0.6420558738087085
  0.9671767796247138  0.6236192587670507  0.7786329714528805
  0.4627428989846680  0.1306377440226640  0.5151955522433339
  0.1850437365685441  0.6189860801857090  0.3779270409782479
  0.7711384524960434  0.1726137711903568  0.5862102270696079
  0.3640032335760675  0.6127020266812049  0.4914628853203902
  1.0438857760552831  -0.2248637417868160  0.3777327488387679
  0.7334707836204942  -0.1311075075425070  0.6596496087494066
  0.2829135813634600  -0.2299442264101815  0.8871719827708396
  0.2754070791145197  0.0991821181950470  0.8444348370833648
  1.1032974851457127  0.5207944745955068  0.6076534199311374
  0.9140975623399769  0.7056332493550430  0.5406734171845743
  0.8259004287731019  0.5296250264893639  0.4751189393406073
  0.8577174367821552  0.2306241113225785  0.3828558130429282
  0.8851245596815458  0.1193441655948828  0.8803886049244196
  1.0649949465544237  0.1590086679291099  0.3786538687330574
  0.3053636682352956  -0.1519692714872613  0.5828851640400001
  0.2149274467703986  0.6900967075535162  0.6388099097921939
  0.7042871743263044  0.7984891600645670  0.8486287650627048
  0.4202620183248208  0.3445887529155073  0.4072966917238051
  0.8457678470906569  0.7392795000783509  0.4359376184299824
  0.8858994843474802  0.1801618406906771  0.4909972018342761
  0.3065682645948651  0.1654451710299882  0.4044993007495092
  0.2961878601000042  0.7923850600645079  0.3922072659934562
