1-pos-1
1.000
11.0985002518  0.0000000000000000  0.0000000000000000
0.0000000000000000  14.4173002243  0.0000000000000000
0.0000000000000000  0.0000000000000000  26.7964000702
Pt  H  C  O  K  
96  168  6  81  4  
Direct
  0.0000000000000000  0.0000000000000000  0.0018699899937576
  0.1249999521128992  0.1666699702868031  0.0018699899937576
  0.2499999943280624  0.0000000000000000  0.0018699899937576
  0.3749999464409617  0.1666699702868031  0.0018699899937576
  0.4999999886561249  0.0000000000000000  0.0018699899937576
  0.6249999407690242  0.1666699702868031  0.0018699899937576
  0.7499999829841874  0.0000000000000000  0.0018699899937576
  0.8749999350970866  0.1666699702868031  0.0018699899937576
  0.0000000000000000  0.3333300219343480  0.0018699899937576
  0.1249999521128992  0.4999999922211510  0.0018699899937576
  0.2499999943280624  0.3333300219343480  0.0018699899937576
  0.3749999464409617  0.4999999922211510  0.0018699899937576
  0.4999999886561249  0.3333300219343480  0.0018699899937576
  0.6249999407690242  0.4999999922211510  0.0018699899937576
  0.7499999829841874  0.3333300219343480  0.0018699899937576
  0.8749999350970866  0.4999999922211510  0.0018699899937576
  0.0000000000000000  0.6666700318690679  0.0018699899937576
  0.1249999521128992  0.8333299447943854  0.0018699899937576
  0.2499999943280624  0.6666700318690679  0.0018699899937576
  0.3749999464409617  0.8333299447943854  0.0018699899937576
  0.4999999886561249  0.6666700318690679  0.0018699899937576
  0.6249999407690242  0.8333299447943854  0.0018699899937576
  0.7499999829841874  0.6666700318690679  0.0018699899937576
  0.8749999350970866  0.8333299447943854  0.0018699899937576
  0.0000000000000000  0.2222199683821562  0.0864100026098289
  0.1249999521128992  0.0555599860957249  0.0864100026098289
  0.2499999943280624  0.2222199683821562  0.0864100026098289
  0.3749999464409617  0.0555599860957249  0.0864100026098289
  0.4999999886561249  0.2222199683821562  0.0864100026098289
  0.6249999407690242  0.0555599860957249  0.0864100026098289
  0.7499999829841874  0.2222199683821562  0.0864100026098289
  0.8749999350970866  0.0555599860957249  0.0864100026098289
  0.0000000000000000  0.5555599783168760  0.0864100026098289
  0.1249999521128992  0.3888900080300730  0.0864100026098289
  0.2499999943280624  0.5555599783168760  0.0864100026098289
  0.3749999464409617  0.3888900080300730  0.0864100026098289
  0.4999999886561249  0.5555599783168760  0.0864100026098289
  0.6249999407690242  0.3888900080300730  0.0864100026098289
  0.7499999829841874  0.5555599783168760  0.0864100026098289
  0.8749999350970866  0.3888900080300730  0.0864100026098289
  0.0000000000000000  0.8888900002512240  0.0864100026098289
  0.1249999521128992  0.7222199606033073  0.0864100026098289
  0.2499999943280624  0.8888900002512240  0.0864100026098289
  0.3749999464409617  0.7222199606033073  0.0864100026098289
  0.4999999886561249  0.8888900002512240  0.0864100026098289
  0.6249999407690242  0.7222199606033073  0.0864100026098289
  0.7499999829841874  0.8888900002512240  0.0864100026098289
  0.8749999350970866  0.7222199606033073  0.0864100026098289
  0.2508275884346184  0.4527739862764036  0.1703796493685476
  0.5014962652721755  0.4522460428902230  0.1735548310338870
  0.1225323938862318  0.6116873442113662  0.1725427887136890
  0.8733955173202692  0.2794516931338729  0.1716514846042776
  -0.0070059460860389  0.4475232652799437  0.1716184557833285
  -0.0062155543032773  0.1145478772798590  0.1728370049845070
  0.1167532741633126  0.9468544494683849  0.1712740073023453
  0.3696948021003603  0.9517952858518806  0.1715826339752690
  0.8735056666983171  0.6152199785955872  0.1708507899197756
  0.5023377668433887  0.1202370841579784  0.1744738204031862
  0.2416201183997886  0.1192031749538907  0.1751699971153986
  0.2441464176171493  0.7856339773315599  0.1727777510139795
  0.7441222053637905  0.1136079749965480  0.1775136859555216
  0.6211542255433946  0.2786910322036443  0.1697809512576830
  0.3686824664383254  0.6194740806913890  0.1681937471821886
  0.0029645725596721  0.7838066381841379  0.1734367337375446
  0.7528677790447261  0.7842302554775966  0.1717409152439801
  0.6154410897086934  0.9540986973563471  0.1760639974825091
  0.8710228054941169  0.9509098159510400  0.1722481366604537
  0.7417970715245751  0.4511758040271943  0.1703643697825238
  0.3718142883342039  0.2841930549864050  0.1699354468350424
  0.1161003765613304  0.2817867454721226  0.1748810738130252
  0.4985334048717654  0.7836339706277112  0.1730593338937781
  0.6228713004875439  0.6134526964135143  0.1767085824997036
  0.3680478718228180  0.5167359964623137  0.2568689289183547
  0.1193849162083955  0.5212229190409924  0.2598314808951885
  -0.0170202616312383  0.0209637364484220  0.2604394294053363
  0.8715731804151798  0.1894073331772201  0.2634371182325504
  0.7421647475625458  0.3468186420833705  0.2539050006409767
  -0.0026937767916121  0.6853910342274068  0.2618569776095908
  0.6069954306400460  0.8547429807717914  0.2603949374662370
  0.2450795616965325  0.6822149661780765  0.2563953554433075
  0.7515887280308111  0.6859936434097664  0.2619251473784857
  0.9958261033428829  0.3517537938935601  0.2629629863242823
  0.1190404962675680  0.8494903833629950  0.2602714814388851
  0.6236426779084356  0.1851287324794258  0.2611516046247689
  0.2427935117236197  0.0219521843463148  0.2565147904417258
  0.3753194314632218  0.1881633467982883  0.2599920085104179
  0.8738414318841939  0.5190347081825665  0.2613196339267723
  0.4815107888683680  0.0231568187459459  0.2642207140493389
  0.3671002901621072  0.8567696112327950  0.2634029547144061
  0.5017042321548745  0.3485707594359262  0.2589598305974317
  0.1233984437471975  0.1815300428501045  0.2622751802140691
  0.7398700421859462  0.0143848960258487  0.2670968582813288
  0.8617176817695623  0.8538811271718326  0.2624245851524009
  0.2441865181343276  0.3505258283643301  0.2576563175879046
  0.6263224150463590  0.5216484976864074  0.2678483922578049
  0.4866408761331555  0.6928791984551335  0.2608678556965516
  0.9038195428497759  0.6152726533327560  0.3526867131570432
  1.0152138530944859  0.6205027259903892  0.3867803112450934
  0.4349313990705296  -0.0034427167658160  0.4352778942187567
  0.3326765804687153  0.0102481539124066  0.4732987153824555
  0.8400263947543680  0.6871280245869326  0.7354148117871758
  0.6959234615278166  0.6961904727129544  0.7367612647064291
  0.7348644716818602  0.4690280673286263  0.8608203728586828
  0.7076591942975550  0.4895540309345738  0.9178127511072213
  0.4006763295949633  -0.1552282880762899  0.7729623374086834
  0.3051186106474869  0.7634266775584470  0.7771651679047561
  0.1989491725192232  0.5518361876442290  0.9000949569984524
  0.0607908584486968  0.5515295419455740  0.9088184931521003
  0.1983186708260899  0.6272546757927474  0.7528750172653107
  0.1742033226323920  0.7026883864168045  0.7137506134105591
  0.6169905183981428  0.1168139833532370  0.3423617091462364
  0.6980603901633908  0.1722224670826369  0.3819332612436105
  0.4933277155453512  0.2559771305434672  0.8625976982559463
  0.4662666764242060  0.1489219358823642  0.8678654706369454
  0.6221014586434971  0.0814506831813593  0.8020385986922456
  0.7130476410555123  0.0359340300153286  0.7591718532342454
  0.6538665607565346  0.2014062009269828  0.8776386798931858
  0.7196931800046183  0.2333530801023010  0.9247754544334598
  0.5591747560210656  0.3658726824741635  0.6674536937254538
  0.4202557623354146  0.3890927151357400  0.6739708201171518
  0.5583342575313270  0.2620369566579811  0.5213607348039467
  0.5875046701686104  0.3706255616702633  0.5117621376332007
  0.6332495869304638  0.7806885624972467  0.3504954486421766
  0.7613567811227069  0.7981957993427814  0.3525273978128620
  0.5509094471127631  0.6976257474230644  0.5374718666600542
  0.6412769607808677  0.6558942679893542  0.5745059812799361
  1.1659116959249838  -0.0211123107214602  0.3460805172972917
  1.1110836789952812  0.0596034047450602  0.3795990012558459
  0.5963116901517066  0.5427632013454817  0.5056503036752454
  0.6847786316775005  0.4711682236699636  0.4797087413057144
  1.1990416241006729  0.1389237719711318  0.7356414522606757
  0.3138207488020845  0.1776715922154815  0.7201523895055045
  1.0824746014626205  0.3648273710382125  0.7717990073972514
  1.1675560840121977  0.2801180023561646  0.7588347562892702
  0.9764560759857962  -0.0158748238463011  0.3692483906039156
  0.8544940735719594  -0.0377798547804359  0.3406354511049018
  0.3313834091055239  0.3473911695310606  0.8867482820994711
  0.4446483392113842  0.3897318381377338  0.9156077223292807
  0.1885230539469203  0.3494059637885209  0.8439812508752115
  0.1478202862710143  0.4005738109875839  0.8956414757215883
  0.3190702490839403  0.8657020636681644  0.8783505883230505
  0.3090769301954704  0.9309010749446074  0.9267762999373163
  0.1833482283491387  0.7187522458077360  0.4816117448944954
  1.0686515104305581  0.7464345633422852  0.4513085195032968
  -0.0469848941991443  0.4738783964410171  0.3691567387516680
  0.0055071727452623  0.3861913988178972  0.3418926511284775
  0.0995310957280777  0.4490487849443625  0.4087970073816800
  0.2446444756046782  0.4514761712410711  0.4261446090737804
  0.9100572980625824  -0.0232132829373919  0.7728597400936412
  0.9129154420081895  0.0234517096363245  0.7216566266602866
  0.8582850793155666  0.5838607894779206  0.8874912740516678
  0.9446651814419341  0.6728333899470408  0.8866862625447681
  0.7664894307427094  0.3691585217202766  0.6406345343974361
  0.6806759978650974  0.3451384567904839  0.5897049552179663
  0.5137296029502082  0.8236151493666029  0.5083296266183241
  0.4074741484793449  0.8062891942908404  0.5544941664467805
  0.3389611867594335  0.5002866603653737  0.6516814965089325
  0.2087737231996014  0.4563450431940659  0.6292670846317211
  0.4579917975652264  -0.0896137226387494  0.6997038269125998
  0.5775236846672556  -0.0982206518605500  0.6676203284483383
  0.9546524015514281  -0.0449129109282622  0.5684732374420884
  1.0728488183499272  0.0048707251848471  0.5505318515902384
  0.4836219923704989  -0.0526747344083190  0.3540628418162435
  0.5752457412581089  -0.1006969613598712  0.3905764920952640
  0.9314351607302452  0.4864156005352584  0.7624783972202989
  0.8692654321952482  0.3971100154070612  0.7871208521235731
  0.8978260284207240  0.4172516160592110  0.6982942747040550
  0.9564954170072039  0.3591896367928644  0.6570806300239188
  0.3015096906951263  0.3237001996347475  0.4899306193633051
  0.3251797649429864  0.2264136583628985  0.5157543356568063
  0.7407484094498851  0.6373953155536910  0.6648606579961033
  0.7241156811792289  0.5447406027560419  0.6297987518095015
  0.6818840620715946  0.3854342114714341  0.8027383019938413
  0.7349075274001247  0.3277848855734326  0.8504693531256829
  0.7154809783341793  -0.1444043034902593  0.5294593371061768
  0.6723708701263247  -0.0855627114375288  0.4827512027627169
  0.2495621216254681  -0.0710459869229596  0.5500234749327653
  0.1648339771225665  -0.1093877072936221  0.5113293707253466
  0.8058338893806394  0.0187976003956149  0.4287446188444018
  0.6612778056575436  0.0473085120507100  0.4256170244070728
  0.3640254700579706  0.6129417175904761  0.8676521565729284
  0.2538873668848188  0.6738986819685049  0.8508986824187917
  0.5017398582296619  -0.0475178349650593  0.8823709427034064
  0.6118499499244205  -0.0289241994764833  0.9129931189603037
  0.2934467430472685  0.5204025068961399  0.7990432658083608
  0.2429378505228859  0.4568917151837854  0.7583016169659814
  0.8771698515590964  0.7913375602646116  0.5786590474794425
  0.8058831191222805  -0.1340130927386448  0.6095860484396061
  0.5382514039075817  0.1504477867391649  0.7334155383974799
  0.4677129305788966  0.2458840901034312  0.7083865218190230
  0.4841745274482906  0.3953604021641127  0.8178809798885207
  0.5159646586187412  0.4017812612750281  0.7581604414651646
  0.3318504898535880  -0.0056527458076123  0.7637561459742472
  0.4747533800294723  0.0095995243940840  0.7644792054728828
  0.6004215653118754  0.6006203324603677  0.8771461134601790
  0.5121407473481064  0.6454875313905619  0.9182716895977567
  0.1418723442516145  0.2364239901902644  0.9145147044379495
  0.0353776900745053  0.1494875999438127  0.9068507515613693
  1.0148902483083870  0.1998514194941720  0.6549414601596898
  1.1505703681296013  0.2366756148317410  0.6640596868416283
  0.9752644443959465  0.0281941198335374  0.8467279319371146
  -0.0075950200466346  -0.0793753844753249  0.8469313424058985
  1.0315736704194034  0.2763391318913481  0.5803586419914176
  0.1070757362831310  0.2444477672914045  0.5304144870529214
  0.1313667236583195  0.0064045783998011  0.7841532721205998
  0.2298013156134638  0.0689834959962685  0.8086744411126514
  0.9682103570666875  0.0524583472656872  0.6317639351685366
  0.8511081599757593  0.1041770074516794  0.6477774869469787
  0.4710738907495242  0.1127549560534263  0.6545474268614728
  0.4863192599670956  0.0224214750175735  0.6305160838372978
  1.0507047022509848  0.3795739456737089  0.5207521571122687
  0.1103357519049833  0.4554906388320594  0.4868369468668943
  0.4217481731768987  0.4529348931496677  0.5080635321660349
  0.3505516341515609  0.4349215901831194  0.5564416529398649
  0.4796081409591089  0.6899799632620180  0.7798168922712324
  0.4994806858972620  0.5861318377040520  0.7713599391466963
  0.9147753107140223  0.7973100173446737  0.9312877434365662
  -0.1824086437419024  0.7961493794901745  0.8873272983501375
  0.5188787453120991  0.5951963828593047  0.6520222237587153
  0.4523897890334956  0.5974489126807522  0.7049420797537380
  0.9285305509299461  0.6099342307777290  0.8117052077114200
  1.0198489826554964  0.6481537248111033  0.7721630979121878
  0.4724324635708885  0.0992815161182160  0.5013824918609571
  0.4932191929276394  0.1243807361781610  0.5585323604286780
  0.1486196696650509  0.6221816181979055  0.3448095030039248
  0.1638581396441429  0.5873668598665224  0.4000952421524277
  0.7075526177085417  0.2132487826200674  0.6197057327774126
  0.6489582204795531  0.1178280919014766  0.6176805897224561
  0.3671484961438040  0.6888850975274893  0.4907581090724418
  0.3043127577847499  0.5917173679799820  0.4828311778375174
  0.9676301865072503  -0.2290865110954128  0.3582499757971538
  0.9377478458057479  -0.1378383937618589  0.3829502507432674
  0.7711923823411955  0.8191974847824491  0.6860666771296935
  0.7874094885462262  -0.0784611113524150  0.6936388941539368
  0.1610230927561729  -0.2387599804364296  0.9246312806269082
  0.0687803162302218  0.7602536200242148  0.8840863694353396
  0.2564192000390724  0.1329639739948660  0.8810072572007168
  0.3156104566229028  0.0338115366896765  0.8782755781241157
  0.9999088598479928  0.4955685983258976  0.6253210511823402
  1.0289715679420606  0.4879599429123750  0.5708884045067111
  1.0314236086847353  0.6500393904057046  0.5813282844893626
  1.0402806709606998  0.7155834234145532  0.5353647049498215
  0.8651561865345472  0.5331875792004068  0.4313331313243725
  0.9095345421344507  0.4879303458038067  0.4806668614163540
  0.8485202726623052  0.2919005585183567  0.3896641733197584
  0.8418942399433283  0.2188873599774968  0.3460096199530580
  0.8891404755520501  0.0520803579601157  0.9171519113692860
  0.8432344280374438  0.1416170479309785  0.8917127258177130
  1.0061071268876176  0.1812050053932232  0.3930898280181328
  1.0873021307399489  0.1666669682060163  0.3424426362481724
  0.3795639454814433  -0.1480293484630976  0.6257681081925587
  0.2643420760407861  -0.2088250434728099  0.6202313017778419
  0.2923174677744255  0.6640510292740911  0.6471136812733286
  1.1567187933989465  0.6315872779879016  0.6290902255802222
  0.6528192348263383  0.8505432911934370  0.8646807541572529
  0.6406071696170756  0.7390215198294738  0.8629072845353820
  0.5421861250419006  0.3513659499412940  0.3391101298120072
  0.7548611286593655  0.4489125252723409  0.3485099804912077
  0.7345540099508311  0.6035501812144920  0.3417153929636660
  0.4046842471235308  0.5312306308979469  0.3262960660982078
  0.5436780658469038  0.6369874868334366  0.4072079227998538
  0.3474399632395925  0.5611576284139432  0.3836048288527915
  0.5062669747643352  0.6622385391342274  0.3462795454833924
  0.6152383194380313  0.3673148276661569  0.3984146803388249
  0.5692915741994307  0.4053852546573969  0.3681356030532788
  0.6599332089587617  0.4701712912362633  0.3455273608299615
  0.4556274029439131  0.4448498365935495  0.3882342906153794
  0.6449023520127574  0.5679019715216849  0.3442327737694190
  0.4312223576806063  0.5391392816387992  0.3689663899515815
  0.5308162585881394  0.6063417694226757  0.3698301945574003
  0.9327608814101734  0.5863482203798280  0.3832828107243341
  0.3953118362175501  0.0494389248063680  0.4563567878582105
  0.7667147457351198  0.7050463642261797  0.7150870324745446
  0.7320163855997002  0.5198402013899859  0.8877651587406847
  0.3818628345854789  0.7837251084468283  0.7916577367790311
  0.1356548441719251  0.5161261013666162  0.9188060313997334
  0.1679930985808296  0.6932904614175296  0.7511802554099486
  0.6203782751262558  0.1335993038386991  0.3785481340824111
  0.5266620251283057  0.1950305648737728  0.8551858116301426
  0.6303168348773457  0.0704763078102116  0.7674120771793104
  0.7361194281880549  0.2252839012969711  0.8873727326695540
  0.4903559437427015  0.3611142449836013  0.6922418403705207
  0.6173340605897448  0.3122535259973458  0.5289073279011622
  0.6930682169108818  0.7961947473183965  0.3767796912103889
  0.6186850031189004  0.6574568950588819  0.5380668021983441
  1.1293741426520332  -0.0100032513755190  0.3790456128767670
  0.5991803398410948  0.4865015685584470  0.4837034878619521
  0.2305895882990982  0.1876737137539474  0.7147337400929115
  1.1562630908098348  0.3329765901669072  0.7819652090917453
  0.8854718906463196  -0.0211841667197319  0.3734047030305186
  0.4182732968760448  0.3601507243601918  0.8837915599579732
  0.1844604629231748  0.3372855242969806  0.8803243407846290
  0.3355519362533695  0.9301801694880864  0.8898769440645250
  1.1184507578748568  0.7664275319782695  0.4779318235005144
  -0.0224806163210687  0.4086071359997655  0.3750981540568176
  0.1593972047991876  0.4842585893045715  0.4283067587113517
  0.8534181612478539  -0.0140210394911031  0.7426570999337773
  0.9405413813372689  0.6007398506623328  0.8823704930310635
  0.6838310718575785  0.3665169942354142  0.6255892522832781
  0.4427092078952851  0.7892134341159182  0.5202555041154059
  0.2970426389876707  0.4470248641654348  0.6309688087394572
  0.4900449754927851  -0.1005752406096130  0.6653068571149654
  0.9953775124353689  0.0196769530970750  0.5652421137249781
  0.4897327793562450  -0.0792288524847904  0.3876901062786104
  0.9295873998134785  0.4172546426799597  0.7589940078077136
  0.8920627355208904  0.4117330020772467  0.6604628512873187
  0.2736552615843226  0.2583163886136540  0.4935355770086206
  0.6957827017076105  0.6102485094380543  0.6332631483051800
  0.7537774899309662  0.3790991807944659  0.8239950753293556
  0.6571441435447226  -0.1424787498936706  0.5011419715081068
  0.1988784647855478  -0.0491672233061525  0.5227768317572907
  0.7322862337622495  0.0260729194892139  0.4497181358327905
  0.2834992334653235  0.6090159896026104  0.8554775916371405
  0.5916958392044860  -0.0337601385784856  0.8772871621902361
  0.2710060151786894  0.5210803424234551  0.7627300072866636
  0.8452615184991801  -0.1438559478704827  0.5765601571526577
  0.4697397881893518  0.1747373222175039  0.7102419398553915
  0.5378351701196651  0.4235290617176886  0.7922137864372301
  0.4114746755408998  -0.0360622368343060  0.7570096425847472
  0.5267932751230754  0.6400001381082429  0.8823582122620371
  0.1226539681142254  0.1671665328670796  0.9190779192011140
  1.0715684130629430  0.2527581784804603  0.6488963065504126
  0.9940746280841563  -0.0256489020931070  0.8233299048790972
  1.0294550526182114  0.2624028409093965  0.5427824321847962
  0.1958591536768631  0.0492675803548016  0.7766546007627460
  0.9329102472039643  0.0893984503303620  0.6611637476185721
  0.5015288490710489  0.0860845322349704  0.6235539181392469
  1.0389109686716418  0.4430539720837462  0.5079970943275441
  0.3397871872993275  0.4344628430392642  0.5213419718731543
  0.5271838101144404  0.6463027109884862  0.7571477171466402
  -0.0833342595410581  0.7884576084044140  0.8938951267688406
  0.4375743649428999  0.5929798291770737  0.6676042563118249
  0.9379284472793274  0.6180212537214202  0.7763298452815172
  0.5026787620241913  0.1476861663608299  0.5233521598632905
  0.1585718606993382  0.6439130091813523  0.3794625457696456
  0.7313864265834930  0.1495627649319271  0.6110075842653216
  0.3104099415631640  0.6544023667481117  0.4670077113797397
  0.9663375268528369  -0.2041941096876156  0.3913631924036924
  0.7509080806975127  -0.1218114636428241  0.6666623794315767
  0.1550697158492990  -0.2417469833516783  0.8885866826820473
  0.3066526039180857  0.0958441550291772  0.8600832048305802
  1.0570116981343833  0.5182196742637891  0.6020536026979681
  0.9844000152208023  0.6870679408828742  0.5584585863510101
  0.8408003944124396  0.5179804633611690  0.4654860663754414
  0.8379483897377660  0.2252599197751451  0.3829439081674157
  0.9126696281830686  0.0997787021994158  0.8930499021587937
  1.0909359009507897  0.1637880619368632  0.3822161122116564
  0.3173392330219382  -0.1675301335009323  0.6015783281100894
  0.2043047823720373  0.6820627435104580  0.6457195561930142
  0.6950606942004520  0.7918047739797458  0.8598847151384549
  0.3786111116876805  0.4048390210299160  0.4161101299461520
  0.7971225019222917  0.7162352576452201  0.4615929809749135
  0.8104605609700437  0.1455124146727588  0.5221667813901827
  0.3682977116513615  0.2125546980588585  0.3888312467310551
  0.2635026041041622  0.8010114606988222  0.3845654399248968
