1-pos-1
1.000
11.0985002518  0.0000000000000000  0.0000000000000000
0.0000000000000000  14.4173002243  0.0000000000000000
0.0000000000000000  0.0000000000000000  26.7964000702
Pt  H  C  O  K  
96  168  6  81  4  
Direct
  0.0000000000000000  0.0000000000000000  0.0018699899937576
  0.1249999521128992  0.1666699702868031  0.0018699899937576
  0.2499999943280624  0.0000000000000000  0.0018699899937576
  0.3749999464409617  0.1666699702868031  0.0018699899937576
  0.4999999886561249  0.0000000000000000  0.0018699899937576
  0.6249999407690242  0.1666699702868031  0.0018699899937576
  0.7499999829841874  0.0000000000000000  0.0018699899937576
  0.8749999350970866  0.1666699702868031  0.0018699899937576
  0.0000000000000000  0.3333300219343480  0.0018699899937576
  0.1249999521128992  0.4999999922211510  0.0018699899937576
  0.2499999943280624  0.3333300219343480  0.0018699899937576
  0.3749999464409617  0.4999999922211510  0.0018699899937576
  0.4999999886561249  0.3333300219343480  0.0018699899937576
  0.6249999407690242  0.4999999922211510  0.0018699899937576
  0.7499999829841874  0.3333300219343480  0.0018699899937576
  0.8749999350970866  0.4999999922211510  0.0018699899937576
  0.0000000000000000  0.6666700318690679  0.0018699899937576
  0.1249999521128992  0.8333299447943854  0.0018699899937576
  0.2499999943280624  0.6666700318690679  0.0018699899937576
  0.3749999464409617  0.8333299447943854  0.0018699899937576
  0.4999999886561249  0.6666700318690679  0.0018699899937576
  0.6249999407690242  0.8333299447943854  0.0018699899937576
  0.7499999829841874  0.6666700318690679  0.0018699899937576
  0.8749999350970866  0.8333299447943854  0.0018699899937576
  0.0000000000000000  0.2222199683821562  0.0864100026098289
  0.1249999521128992  0.0555599860957249  0.0864100026098289
  0.2499999943280624  0.2222199683821562  0.0864100026098289
  0.3749999464409617  0.0555599860957249  0.0864100026098289
  0.4999999886561249  0.2222199683821562  0.0864100026098289
  0.6249999407690242  0.0555599860957249  0.0864100026098289
  0.7499999829841874  0.2222199683821562  0.0864100026098289
  0.8749999350970866  0.0555599860957249  0.0864100026098289
  0.0000000000000000  0.5555599783168760  0.0864100026098289
  0.1249999521128992  0.3888900080300730  0.0864100026098289
  0.2499999943280624  0.5555599783168760  0.0864100026098289
  0.3749999464409617  0.3888900080300730  0.0864100026098289
  0.4999999886561249  0.5555599783168760  0.0864100026098289
  0.6249999407690242  0.3888900080300730  0.0864100026098289
  0.7499999829841874  0.5555599783168760  0.0864100026098289
  0.8749999350970866  0.3888900080300730  0.0864100026098289
  0.0000000000000000  0.8888900002512240  0.0864100026098289
  0.1249999521128992  0.7222199606033073  0.0864100026098289
  0.2499999943280624  0.8888900002512240  0.0864100026098289
  0.3749999464409617  0.7222199606033073  0.0864100026098289
  0.4999999886561249  0.8888900002512240  0.0864100026098289
  0.6249999407690242  0.7222199606033073  0.0864100026098289
  0.7499999829841874  0.8888900002512240  0.0864100026098289
  0.8749999350970866  0.7222199606033073  0.0864100026098289
  0.2512830601817295  0.4522366791398745  0.1714660968959666
  0.4841151572915081  0.4521137593925967  0.1701141220596046
  0.1212411019751760  0.6160841426558598  0.1743335389478357
  0.8721312554486957  0.2847636061694994  0.1754443813453973
  0.0047606495653709  0.4527292450772912  0.1728515979073987
  0.0076345856627122  0.1193442900911458  0.1713901304603757
  0.1316169704337385  0.9474591998213884  0.1699237317427473
  0.3889773340501426  0.9480212639578028  0.1714174458534167
  0.8756093943615401  0.6156199766403168  0.1706031455204303
  0.4988704424637944  0.1151686787725625  0.1729579842873800
  0.2455233654347179  0.1119590074762677  0.1713113009088514
  0.2597478240929403  0.7848352778510156  0.1715690522964224
  0.7525490399971303  0.1143123485853620  0.1703433195706102
  0.6290392784978068  0.2848510771925328  0.1680372443650559
  0.3704098414948688  0.6192678686507334  0.1752260219506774
  0.0070774963389545  0.7818163692118905  0.1734808325305505
  0.7547537862461591  0.7769842199387152  0.1715781197047072
  0.6345693507154514  0.9473053594098346  0.1719826065339680
  0.8798627978961613  0.9519778541246535  0.1701222653885379
  0.7459703607482689  0.4512247189827704  0.1722407352632704
  0.3723618707428283  0.2789043921012773  0.1713803564049312
  0.1312404901881916  0.2883068224794365  0.1724001318198531
  0.5129066590395190  0.7792972674775183  0.1764462061811839
  0.6246187371825924  0.6076483340226311  0.1752457026651995
  0.3788111160440925  0.5183344138456987  0.2597890819051368
  0.1275136881913820  0.5158128615276907  0.2592784446902813
  0.0102992696856912  0.0116797795967501  0.2546074348019345
  0.8856891071481265  0.1771483045137186  0.2597169886166749
  0.7513938051447528  0.3442692362495343  0.2591777292586214
  0.0005377618925613  0.6804731949928116  0.2550050219282682
  0.6341186044266284  0.8483810184367488  0.2602680659390508
  0.2461565015828980  0.6849926712807629  0.2617376830180925
  0.7533879954135155  0.6844368526687253  0.2591768600523124
  1.0107119800516036  0.3435356350388046  0.2648030052324502
  0.1295658232171308  0.8474663106762921  0.2618655331916616
  0.6265626452882395  0.1821590051356173  0.2604619085330707
  0.2537590721542069  0.0152640344777647  0.2588706854363750
  0.3780111792599707  0.1825528280436282  0.2598741338521904
  0.8786951288322356  0.5109756919734036  0.2575460910540320
  0.5116881213188206  0.0110821646573402  0.2593217354157877
  0.3812259687441817  0.8513791687233846  0.2567269627105793
  0.5065322801959878  0.3497563822802913  0.2525307327541141
  0.1269980502970573  0.1833778011672337  0.2574400590313515
  0.7611668950883610  0.0105804533252970  0.2593236674551611
  0.8807685003939714  0.8519775851582077  0.2570721694725236
  0.2507900593729840  0.3521886037541076  0.2625715623914957
  0.6293651372100606  0.5248441583776058  0.2700365493701928
  0.5001310122599461  0.6815564515011056  0.2616457027485958
  0.8926263378147217  0.5244128505735608  0.3362540383519789
  1.0043119201526565  0.5529468236475642  0.3712013478654471
  0.3807431196403912  -0.0299390541352868  0.4290706941670985
  0.2833137020013163  -0.0205534153613970  0.4716743172324813
  0.8134151897537554  0.6708463400656964  0.7396670192479353
  0.6698743374623275  0.6708358487810838  0.7289461125012308
  0.7069799386477859  0.4482702679179166  0.8620039575050127
  0.7173166616461382  0.4678211496790464  0.9211992778108928
  0.3928174949487367  -0.1719624459592866  0.7635222309228381
  0.2926445255676090  0.7573099403588315  0.7660657356593492
  0.1842794299588628  0.5151817911984022  0.9085415918601147
  0.0364433264426337  0.5291960956282602  0.9055742564683572
  0.2141288116666545  0.6212699686938017  0.7539982093217494
  0.1845642141214336  0.6818858975503731  0.7060505724214913
  0.4938570796726393  0.0438856693525448  0.3672507905845186
  0.5730000830579428  0.1278857883039971  0.3496426713720904
  0.4721882076139126  0.2346891783384696  0.8798666090681347
  0.5381691082028218  0.1670063380550088  0.9219793594839997
  0.5632637790935874  0.0851959719843898  0.8189429624766835
  0.6284653996713441  0.0359750781513036  0.7740291998165107
  0.6630602967465348  0.2072123764381864  0.8709845006365365
  0.7431196648720519  0.2602952332000985  0.9089123426465626
  0.5624259888796806  0.3844793870739510  0.6415342734383832
  0.4214593214647513  0.3737255114115242  0.6510635675499447
  0.5490706662741817  0.1974155377650250  0.4923967291924941
  0.5886578612673740  0.1980276679671224  0.4370062887709603
  0.6641116757558841  0.8185998888410482  0.3437260696388481
  0.7099136801859471  0.8879484606780160  0.3821823689925063
  0.5726940685944617  0.6606872152697009  0.5394051693374392
  0.6884105543143868  0.6230015298468338  0.5694187109248559
  1.1130303982104739  -0.0836787564822023  0.3554783124429185
  1.0994012727008837  -0.0114833786301373  0.3949218663617682
  0.7129346632772943  0.4438329350952170  0.4824089514835907
  0.6524853164845877  0.3417098991665894  0.4891722171844020
  1.1730342878794400  0.1663074723281914  0.7344212379403064
  0.2956902026080287  0.1998082464319263  0.7174510469964225
  1.0772685824069712  0.3790007947320317  0.7668570339100266
  1.1885023737113214  0.3061691694024717  0.7532100370133545
  0.9507266303110360  -0.0692972191018175  0.3747325166027443
  0.8429462289179744  -0.0529985941481703  0.3317254017522084
  0.3214439180213922  0.3392151296368978  0.8735775918136336
  0.4319595653586143  0.3861003055771678  0.8991499040684449
  0.1643589776649466  0.3189249658580407  0.8392843971385050
  0.1393500208507154  0.3792687260881042  0.8887698334368930
  0.4188497121533218  0.8180404210575860  0.8402585099384191
  0.3698167020300180  0.8693859644175213  0.8887213824958486
  0.1562360290183149  0.7018115287039650  0.4707499344782640
  1.0424747897828397  0.7442545686407094  0.4414060591315734
  -0.0467297266417493  0.3949770769566175  0.3641861372622491
  0.0335357906974535  0.3148687747480411  0.3423695211657409
  0.1176382376518171  0.3968517022317746  0.4077807716810388
  0.2565184791646301  0.4090050016480325  0.4244116973886902
  0.8344604749815607  -0.0240467903217874  0.7694985621382424
  0.8244519533002655  0.0356994864844739  0.7215759903324837
  0.8330662246370161  0.5485703914294398  0.8898263501602525
  0.8993227525026382  0.6386425865073535  0.9118976735973782
  0.7792210419238762  0.3927188036673421  0.6166507554787627
  0.6870651674998414  0.3979686357387052  0.5651927382754202
  0.5402823111282529  0.8157540819727939  0.5078938542619849
  0.4271320160245221  0.8045910018609752  0.5468529319576855
  0.3871536756782181  0.5019510414233166  0.6139749807511068
  0.2523278605004139  0.4727313772180889  0.6063092541773183
  0.4594566606576395  -0.0735848850544076  0.6757109421364470
  0.5707264315800409  -0.0968563046739078  0.6411778477925884
  0.9006897484350427  -0.0425244052535340  0.5590744177969047
  1.0247520094307738  -0.0266653215663799  0.5337215045428770
  0.4113227537260828  -0.0955130545092647  0.3403809646670917
  0.5122841767992831  -0.1205039723159648  0.3820476593714176
  0.9385381467834477  0.5056870656415827  0.7636106137277595
  0.8597029555819972  0.4112566561044809  0.7674447714627851
  0.9316934466098653  0.4379962206486268  0.6844318271951787
  0.9896417191339564  0.3739333869467058  0.6435687907002983
  0.3179144534080408  0.3354424975175829  0.4728738115345441
  0.3349796533632584  0.2474427389454748  0.5102870552827189
  0.7382894008198161  0.6318288520791541  0.6682808552225927
  0.7377546521541990  0.5320927335251122  0.6418974004432985
  0.6467826265117028  0.3864638305172371  0.7901846754089742
  0.7211242947714468  0.3208796487016775  0.8232539406005125
  0.7051089702440474  -0.1165510653907178  0.5311820916694413
  0.6762902861566973  -0.0667584967522400  0.4752310750376460
  0.2053774033415299  -0.0952019038825725  0.5392765787397853
  0.1445949666613495  -0.1449867209726841  0.4941544145038274
  0.7751705105835982  -0.0025523572740739  0.4140219634031310
  0.6542099963751788  0.0604052987904179  0.4131161738516832
  0.3662907312040360  0.5764576898448767  0.9057965970508381
  0.2519701874446012  0.6317171760389142  0.8808635317342397
  0.5522572036078420  -0.0805846532100228  0.8695992561782229
  0.6534645499714038  -0.0317743859996674  0.8996195778629482
  0.3027434327043477  0.5414142052645636  0.8155747746878927
  0.2459098457070686  0.4652860453854980  0.7790621253754175
  0.8354217017922074  0.8093662334042542  0.5781097808069999
  0.7555118752590088  -0.1375073425854427  0.6165730248248487
  0.4937329214018156  0.1547608401910998  0.7465719522954818
  0.5101776297371061  0.2298869380283659  0.7073046682594383
  0.4499841644360938  0.4671742028613420  0.7753737939151811
  0.5194752493486626  0.4354095448896561  0.7279817629418758
  0.3101570936074644  -0.0302884785643841  0.7458078696968357
  0.4491174801921177  -0.0107653307474587  0.7569377799354752
  0.5949237608774336  0.6114570316876383  0.9014280897889174
  0.5382095650113827  0.7120136981539766  0.9105914253361079
  0.1345326745348175  0.2247852001956455  0.9066365638911985
  0.0419280702835979  0.1421264707553448  0.9083539986540561
  1.0070364693993077  0.2031169397349622  0.6424204433506771
  1.1225977237131046  0.2486638128792983  0.6591771197595858
  0.9425219677319429  0.0171797017643104  0.8498361610679607
  -0.0523775426238983  -0.0924596067683485  0.8419112724320367
  1.0442879620803074  0.2518147550177877  0.5615975725312299
  0.1294753305490031  0.2659137182798134  0.5159858275580971
  0.0944818644239732  -0.0104550588150992  0.7903023815893467
  0.2146537260485824  0.0212838957312411  0.8129786778495953
  0.9544649212385217  0.0712967269258560  0.6064431990277682
  0.8388974152512170  0.1348760927044101  0.6199308977915261
  0.4874677100018588  0.1431406738081019  0.6565426270995621
  0.4979662326992028  0.0452673667293134  0.6294602133574619
  1.0272877252087174  0.3812481752121434  0.5159717803726911
  0.1060409015271344  0.4485655873281917  0.4844652387779904
  0.4905071186998519  0.4601637819900580  0.5047929876238425
  0.3854687506995511  0.4723630989955787  0.5411735836421913
  0.4688856972775223  0.6911609943590401  0.7386240902378152
  0.5129287166774383  0.5876062026315557  0.7476449181350975
  0.9322726890439010  0.8367524825117337  0.9148916998729157
  -0.1610353098302752  0.8007364906740378  0.8708893321551988
  0.5335141971402554  0.6283290493758050  0.6109486210614637
  0.4947131258937005  0.6025145458273038  0.6629445885552272
  0.9355119273810062  0.6233479339878519  0.8134851788073525
  1.0160206843146362  0.6438336759925997  0.7662374607712278
  0.4137041273982340  0.0974848795221117  0.5035688351886622
  0.4642497213679254  0.1222592886238922  0.5592650139175261
  0.1729828804021183  0.5885724645587730  0.3406711136079805
  0.1677621021090690  0.5391877947923799  0.3933977310528085
  0.6987813934447757  0.2582634623453424  0.5968400315304231
  0.6355794786918131  0.1615799389107267  0.5979119316933088
  0.3908558154779930  0.6974632819570229  0.4872922204397638
  0.3454862432496791  0.5923861614399218  0.4792106740479845
  0.9363319819193229  -0.2951512436931725  0.3746036400711598
  0.9010305119809449  -0.1912008677293006  0.3851592782598341
  0.7033432575932033  0.8021440776205727  0.6917968517314215
  0.7268693908162623  -0.0936258289207915  0.6991097269081853
  0.2053990359670697  -0.2359982576394742  0.9190807318475814
  0.1124627799866533  0.7600885884674751  0.8761933003310605
  0.2179395363448055  0.0530387484898982  0.8926522373242605
  0.3713350101723516  0.0544489636677531  0.8899343158605861
  1.0400927066995229  0.4993357661419952  0.6265434677686798
  1.0618723941722332  0.5180424667519629  0.5686601250832224
  0.9476763074176786  0.6706021444017908  0.5649289065449833
  0.9955579056195448  0.7357866270982126  0.5182856536854333
  0.8486175088541794  0.5104779567117140  0.4247360217000616
  0.8883500149671997  0.4879280838407837  0.4785525911840996
  0.8594617373237405  0.2603214841135227  0.3858359018791449
  0.7769180882256184  0.1937323568106256  0.3550136769781777
  0.8576047247065035  0.0741698747313087  0.9129948246521086
  0.8604872896814254  0.1483458691104452  0.8670995688424419
  0.9663934202065266  0.1297115818638505  0.3834534638787884
  1.0539966252019326  0.1314315519563235  0.3422956064012646
  0.3712855126107409  -0.1058666331874979  0.6079754957912302
  0.2711275212172897  -0.1840921749223589  0.6032470317300854
  0.3040063554490426  0.6688940579003740  0.6308643519731502
  1.1620089029604141  0.6486666589794253  0.6279258084675408
  0.6687340825708661  0.8441398816393794  0.8440624351348247
  0.6712210838569654  0.7412859689906957  0.8522243696904752
  0.5467908804899811  0.3365563062369806  0.3324119271903943
  0.7560034518392873  0.4119610450775900  0.3469433565197033
  0.7319553725092252  0.5871782265192459  0.3445713052653003
  0.4130653902950970  0.5087781627545420  0.3283385942906745
  0.5736846204844089  0.5711128652243752  0.4221804269813458
  0.3489253622778388  0.5473442812267677  0.3887061746358774
  0.5281677543278244  0.6508426444976518  0.3712912693136150
  0.6137101286991745  0.3399005060767492  0.3938573647262772
  0.5708509195350486  0.3813203904454951  0.3647331267929921
  0.6659817714831544  0.4473917401767344  0.3469013303259963
  0.4564919328607768  0.4215527556162192  0.3851113396114845
  0.6530541049656238  0.5435348043104564  0.3506284050613472
  0.4279724870691109  0.5156841646585728  0.3725467865477159
  0.5430576977571808  0.5763319851448424  0.3832004055395251
  0.9211964545878030  0.5256835046152324  0.3735189956292250
  0.3396427188699341  0.0164602626225412  0.4520803554605827
  0.7495819185975827  0.6931561965919462  0.7187241022803648
  0.7128389302795113  0.4979523878055724  0.8890553510728424
  0.3819036655436912  0.7636311120194170  0.7736201712465802
  0.1084881011382345  0.4881816333572070  0.9197995482576045
  0.1663226750840159  0.6762308783420899  0.7415681894785087
  0.5150155270369050  0.1104033753155253  0.3781714517454719
  0.5228578078879491  0.1758326501120693  0.8846537886580773
  0.5540269415863419  0.0724605651298853  0.7830183901879397
  0.7506772234697910  0.2283500239005285  0.8762072134387549
  0.5028348714768824  0.3633086005569615  0.6672451352741186
  0.6091708006316883  0.2238210177701058  0.4689789489736561
  0.6495337915436673  0.8371312926852774  0.3785089235131836
  0.6448427463737078  0.6159765207033541  0.5383032120177006
  1.0948820867512448  -0.0783804871938058  0.3908830258228722
  0.6638393853984991  0.4031714771537415  0.5079722349994905
  0.2060536287530473  0.2178777676423475  0.7153571633608218
  1.1619671022946059  0.3636242692833662  0.7775587719288924
  0.8625864462045080  -0.0559755197814217  0.3699279409297913
  0.4111617137333405  0.3485933560660117  0.8692781714736559
  0.1729978282325672  0.3226186842013851  0.8762636262067401
  0.4388983669762031  0.8397563837849419  0.8723429779956083
  1.0967833959030444  0.7559954476656671  0.4712157188921145
  -0.0103520108296944  0.3365752698567809  0.3761685143859985
  0.1753233337616421  0.4379568737465596  0.4261836612747200
  0.7791246709029516  -0.0083777703676046  0.7421364774597341
  0.9158589872583417  0.5850541796988582  0.8907316160555387
  0.7020863586714109  0.3705345057180686  0.6007905564301362
  0.4759926113209046  0.7719649979641300  0.5216451807250417
  0.3337242355154514  0.4474025484971256  0.6047150825800854
  0.4873348034409241  -0.0695396043851669  0.6397495782414645
  0.9581096255573273  0.0103919822067293  0.5468323313957236
  0.4257415148532042  -0.1023868588733416  0.3764287096391569
  0.9409461974834209  0.4343109338908157  0.7576962149359513
  0.9410176513719651  0.4307181497222031  0.6472738899539257
  0.2827675828444495  0.2712489799240395  0.4838117837521612
  0.7427545707775283  0.5977873965039423  0.6358930630890831
  0.7188461306658146  0.3831893267706599  0.8112516845975628
  0.6627725829809310  -0.1171467758265402  0.4998464808373803
  0.1617844814040336  -0.0820525996612127  0.5094894516178979
  0.7129998697181270  0.0267014447442216  0.4349653814380077
  0.2975909531978734  0.5728667713723085  0.8825747956719280
  0.6218297664660327  -0.0393836357616371  0.8663506118352535
  0.2939702512662333  0.5271969657529302  0.7806708766400302
  0.7917430817442980  -0.1320684018767077  0.5840794709288419
  0.4497774997924066  0.1899242978435616  0.7193852931102368
  0.5317178742905292  0.4560048235604529  0.7619291963029575
  0.3934995850265174  -0.0533355717046071  0.7408026448215302
  0.5714142550000352  0.6705334864225160  0.8838309849142072
  0.1260112392548876  0.1579076213702511  0.9170898209058043
  1.0539649644737237  0.2609977122871975  0.6382145390163356
  0.9515329455065102  -0.0320515135989988  0.8229230997832095
  1.0395316168622732  0.2590526585140414  0.5261684133713103
  0.1648401805012608  0.0294136136587660  0.7833258879816141
  0.9140787932094391  0.1094919914714230  0.6344919170246252
  0.5098643026459583  0.1127755173579277  0.6248259531555440
  1.0383421269581883  0.4473243201407444  0.5086740107623070
  0.4026864277337980  0.4750163186764401  0.5048230897606178
  0.5256600330800382  0.6403519145310888  0.7259140943537501
  -0.0683628368235561  0.8032249552784948  0.8826636414718774
  0.4592160162516922  0.6135058402329590  0.6296394973690237
  0.9342232265047160  0.6189110207582736  0.7785020881144166
  0.4454219424825656  0.1432586110413943  0.5254469500684280
  0.1393005140716431  0.5955991820526106  0.3734467232196877
  0.7100538327168937  0.1890355253479730  0.5910896955078109
  0.3316687507398124  0.6573249705119549  0.4669244872304452
  0.9253354703068457  -0.2506153627646629  0.4008828168171107
  0.6932720159962252  -0.1371883046360042  0.6754737928446262
  0.1963814465964906  -0.2522335632000452  0.8831047325202658
  0.2981620649657875  0.0148261569277530  0.8903264489632594
  1.0978178464179362  0.5326804164385691  0.6034547831252508
  0.9493623861558363  0.7330486798968726  0.5504473672380840
  0.8166265983937849  0.5085964695277071  0.4600084522886435
  0.8150077368906654  0.2004502235535790  0.3887038899334607
  0.9135553968434249  0.1013854476676801  0.8856713200738111
  1.0500479029416532  0.1129961176333274  0.3773435036352079
  0.3105658727575359  -0.1347590329377587  0.5849778017582421
  0.2230204068246575  0.6877443271443993  0.6427409516718510
  0.7188714046031608  0.7882215019665206  0.8384259489947343
  0.3813300307141594  0.3690470414448440  0.4068664144824670
  0.7317337666936465  0.7203796396425715  0.4628092498735200
  0.8537662484679603  0.1603782336447991  0.4952526580075407
  0.2968996986836649  0.1861565529984869  0.3940512745158902
  0.2432254652931322  0.7604961599828478  0.3788032112712161
