combine
1.000
11.0985002518  0.0000000000000000  0.0000000000000000
0.0000000000000000  14.4173002243  0.0000000000000000
0.0000000000000000  0.0000000000000000  26.7964000702
Pt  H  C  O  K  
96  166  6  81  4  
Direct
  0.0000000000000000  0.0000000000000000  0.0018699899937576
  0.1249999521128992  0.1666699702868031  0.0018699899937576
  0.2499999943280624  0.0000000000000000  0.0018699899937576
  0.3750000365432257  0.1666699702868031  0.0018699899937576
  0.4999999886561249  0.0000000000000000  0.0018699899937576
  0.6250000308712881  0.1666699702868031  0.0018699899937576
  0.7499999829841874  0.0000000000000000  0.0018699899937576
  0.8750000251993506  0.1666699702868031  0.0018699899937576
  0.0000000000000000  0.3333300219343480  0.0018699899937576
  0.1249999521128992  0.4999999922211510  0.0018699899937576
  0.2499999943280624  0.3333300219343480  0.0018699899937576
  0.3750000365432257  0.4999999922211510  0.0018699899937576
  0.4999999886561249  0.3333300219343480  0.0018699899937576
  0.6250000308712881  0.4999999922211510  0.0018699899937576
  0.7499999829841874  0.3333300219343480  0.0018699899937576
  0.8750000251993506  0.4999999922211510  0.0018699899937576
  0.0000000000000000  0.6666699625079541  0.0018699899937576
  0.1249999521128992  0.8333300141554991  0.0018699899937576
  0.2499999943280624  0.6666699625079541  0.0018699899937576
  0.3750000365432257  0.8333300141554991  0.0018699899937576
  0.4999999886561249  0.6666699625079541  0.0018699899937576
  0.6250000308712881  0.8333300141554991  0.0018699899937576
  0.7499999829841874  0.6666699625079541  0.0018699899937576
  0.8750000251993506  0.8333300141554991  0.0018699899937576
  0.0000000000000000  0.2222199683821562  0.0864100026098289
  0.1249999521128992  0.0555599860957249  0.0864100026098289
  0.2499999943280624  0.2222199683821562  0.0864100026098289
  0.3750000365432257  0.0555599860957249  0.0864100026098289
  0.4999999886561249  0.2222199683821562  0.0864100026098289
  0.6250000308712881  0.0555599860957249  0.0864100026098289
  0.7499999829841874  0.2222199683821562  0.0864100026098289
  0.8750000251993506  0.0555599860957249  0.0864100026098289
  0.0000000000000000  0.5555599783168760  0.0864100026098289
  0.1249999521128992  0.3888900080300730  0.0864100026098289
  0.2499999943280624  0.5555599783168760  0.0864100026098289
  0.3750000365432257  0.3888900080300730  0.0864100026098289
  0.4999999886561249  0.5555599783168760  0.0864100026098289
  0.6250000308712881  0.3888900080300730  0.0864100026098289
  0.7499999829841874  0.5555599783168760  0.0864100026098289
  0.8750000251993506  0.3888900080300730  0.0864100026098289
  0.0000000000000000  0.8888900002512240  0.0864100026098289
  0.1249999521128992  0.7222199606033073  0.0864100026098289
  0.2499999943280624  0.8888900002512240  0.0864100026098289
  0.3750000365432257  0.7222199606033073  0.0864100026098289
  0.4999999886561249  0.8888900002512240  0.0864100026098289
  0.6250000308712881  0.7222199606033073  0.0864100026098289
  0.7499999829841874  0.8888900002512240  0.0864100026098289
  0.8750000251993506  0.7222199606033073  0.0864100026098289
  0.2619223953820733  0.4543719022344255  0.1739170362731943
  0.5059578551065289  0.4499260902305965  0.1693831920224097
  0.1301812173285011  0.6159392231933047  0.1743126811349006
  0.8844776398782294  0.2906825535294336  0.1716722214606667
  0.0085558710587585  0.4487278419087031  0.1718965846805115
  0.0042401329578172  0.1179741896012700  0.1717763849599684
  0.1331049414411115  0.9542063039245577  0.1697060190356405
  0.3792524362755540  0.9531892562060615  0.1722951924849934
  0.8807485112066968  0.6081526805706584  0.1735700884639496
  0.5100747739571269  0.1147751259636644  0.1725188284690920
  0.2567394431907922  0.1203787522281596  0.1705686169905690
  0.2521374414030538  0.7805362883428736  0.1706356610112320
  0.7513646339871500  0.1126480963934323  0.1714223594052242
  0.6382129968732682  0.2825009123577262  0.1734541634743293
  0.3714459630643696  0.6163521793090390  0.1778410017508158
  0.0008841519734532  0.7787105248371907  0.1678341679747295
  0.7521222946988878  0.7797074901133784  0.1705152252851066
  0.6308210807099384  0.9419889511289825  0.1717967196130775
  0.8854372808349679  0.9563048560826799  0.1707042564977594
  0.7494860680343657  0.4525402946734279  0.1752885096242311
  0.3782808307202672  0.2855841510160345  0.1743109602843431
  0.1307732211894673  0.2869412199051892  0.1730957949705436
  0.4976464722253113  0.7817268403486555  0.1700857063284614
  0.6269275641608901  0.6155109456029142  0.1739747265000886
  0.3864503890518350  0.5044059581309775  0.2657800999776924
  0.1338899247904236  0.5069041853607397  0.2605838849027112
  0.0081348973511405  0.0127380360776885  0.2595845334364753
  0.8732129679799049  0.1816953609376049  0.2555706833290643
  0.7482302111812976  0.3447435405779185  0.2607684897819876
  0.0074433895684781  0.6729267684491913  0.2562719111712660
  0.6315245185279205  0.8486605309555495  0.2607083263012298
  0.2537525978199843  0.6860928420584559  0.2622963527558477
  0.7592276905912030  0.6862364727429657  0.2579271382608677
  1.0029020714753576  0.3429358857816291  0.2619250986779141
  0.1233318494161409  0.8507275998822109  0.2567617628142334
  0.6298589553094125  0.1748786527071448  0.2656321011909296
  0.2598906775563840  0.0110785105404681  0.2563250928671754
  0.3873666309015706  0.1724921903345288  0.2595014317924422
  0.8862061139481281  0.5107317587788883  0.2649128935380541
  0.5084614145848011  0.0084083391005257  0.2605362499630680
  0.3769221029410293  0.8449683288184059  0.2596904777533448
  0.5027771158625690  0.3427711589005173  0.2566679149281960
  0.1313239911098454  0.1769901083074583  0.2582816056809359
  0.7583804291246391  0.0125054082314329  0.2591199053757140
  0.8828496590979371  0.8496202524418704  0.2568779155172773
  0.2530410731165705  0.3399866231569711  0.2603565540491622
  0.6401820353112729  0.5128631059535977  0.2683624238950366
  0.4980581330259911  0.6755136923752908  0.2577669444367438
  0.7585818759281959  0.8545820302911954  0.3569653404912985
  0.8568864774191092  0.8079493819561883  0.3898340998467573
  0.3081207726553308  1.0959795957337211  0.4671261951794921
  0.1927225882842233  0.1158631545720693  0.5020055767252022
  0.7428972102390847  0.8874052042098738  0.7433450813399254
  0.5996051410208069  0.8711820487743105  0.7269160570513387
  0.6751724672966232  0.5350846891429397  0.8575264764446583
  0.6933393310733122  0.5525695398416245  0.9124551935612860
  0.4307971139185733  0.0275232960142693  0.7931923937961030
  0.3203528222223867  0.9781823135395468  0.8188548687964199
  0.1823063247461610  0.5756807754693877  0.9004231977426180
  0.0584728658175909  0.5177308528277118  0.8948108645259915
  0.1227743715984514  0.7917902909006150  0.7613254118708094
  0.0595975521550963  0.8662135803727671  0.7243184016006944
  0.3252943674812703  0.2004856115868490  0.3846504778215558
  0.3880166640264363  0.2804939976823119  0.3496984079373039
  0.5682685668252443  0.3955666499257420  0.8444922301546718
  0.7083338310349634  0.3872511020260089  0.8238532287048075
  0.7219757830253185  0.2239449224590703  0.7302616774094890
  0.8054145149071158  0.2178684530690286  0.7732435734471160
  0.7872891052989686  0.3073699966052527  0.9030029273599884
  0.8751093897866788  0.3714999756037924  0.8767729255180001
  0.3598787441890825  0.5392136743533374  0.6785495804684890
  0.2361101295893561  0.5832451202845277  0.6706494463965461
  0.5502092813855298  0.3716093033680393  0.5592608389350767
  0.4817147275761798  0.3652205819384367  0.5077903294716125
  0.4448959327003832  0.8753897214006843  0.3386373000189452
  0.4994859060710410  0.9473370890605239  0.3772490182157722
  0.4812321475988417  0.7701631257275918  0.5801828262106539
  0.5768228382264278  0.8476312089140352  0.5923135168835960
  -0.0373780539972254  0.2027969808641450  0.3433528958590194
  -0.1279490756753095  0.2208509604130544  0.3827334266294022
  0.5522612086354577  0.6022807043141530  0.4907170469559965
  0.5215265090128959  0.5077805475022940  0.5146419124386910
  -0.0650300694621281  0.3707284876672886  0.7435185714463508
  0.0671779110947067  0.3751213643442446  0.7202983666139875
  0.9160849074496391  0.5924969883059190  0.7628327039732630
  0.0046779281634543  0.5091096274549819  0.7505260658675446
  -0.2801227504406083  0.0225668396813729  0.3758082409434947
  -0.3676482544601675  0.0537730237311224  0.3396316023703878
  0.5344807380382709  0.2801163022250986  0.8928890208990458
  0.5028121883220157  0.3751454742951086  0.9178603576176727
  0.2130129133183176  0.3939948609813871  0.8911213805191472
  0.3304963507123502  0.3288350705223789  0.8910442625034966
  0.4408968758104398  0.9340015879119838  0.8705605949115047
  0.4883914592082741  0.8975112337669487  0.9224460100664377
  0.0307686331443401  0.9055681477378611  0.4746137029445044
  -0.0639772206686071  0.9505780220419461  0.4389141428956213
  -0.0333093094123274  0.5909929887732288  0.3418390069898532
  0.0993898269291924  0.5843600945480798  0.3649028421349069
  0.2637355059775104  0.6142671209255468  0.4362603211503980
  0.3163164769429663  0.6168253852140182  0.4900913593578087
  0.9661185504645986  0.1579069261360641  0.7081411675295372
  0.8853189582625297  0.2041686078880915  0.6674394740019461
  0.8557966456917966  0.5285220166711182  0.8786274578533069
  -0.0528277764200537  0.5130792045609327  0.8320794080319754
  0.5904464409898261  0.4973388230561133  0.6879721536066171
  0.5571833551381926  0.5486112785297170  0.6356099767685278
  0.3970955519855241  0.9045298239971397  0.5610520820712537
  0.3563968226390305  0.9995159300845913  0.5378900359503560
  0.2710706498756058  0.7599222190874467  0.6429985437432455
  0.1750428889421274  0.7141222412880623  0.6083525572649180
  0.4747859844077028  0.1411791768038059  0.7073246910758835
  0.5619993300796114  0.1203703059935591  0.6637199152612613
  0.7950844297515646  0.1465745060464399  0.5385411298232006
  0.9164702445945662  0.1760245248845276  0.5156608156357052
  0.1361939126554375  0.0994746803276501  0.3939505320955305
  0.2003088795929381  1.0664066908439847  0.3463497494956877
  0.7963062639987460  0.7184878313930610  0.7504211254915003
  0.7253195140212232  0.6301583297049715  0.7350869677828699
  0.8325129415392387  0.6732650317109760  0.6600868945739689
  0.8588532838258092  0.6013831776830442  0.6224348521967531
  0.1766046881047835  0.4928050221999843  0.4940253134794010
  0.2222561362739023  0.3879436129569508  0.4995122017074772
  0.6929032315562432  0.8616545569788299  0.6672640627120831
  0.7049069745194777  0.7712702400521655  0.6269139209442552
  0.5486161460880709  0.5821041281539570  0.7505919855618084
  0.6169653978959420  0.4867410398426880  0.7751840191511576
  0.5863264159808089  0.0417461566129814  0.5382311059252801
  0.5361936316697250  0.0984430996455101  0.4879562096194068
  0.0620965697404229  1.0950574534953572  0.5477958271015783
  0.0323070507244298  1.0559415679393718  0.4927393679117231
  0.5670616091286108  0.1134962172766606  0.4116302266611768
  0.4922843557005720  0.2035395731132787  0.4177166944058264
  0.2914779203140838  0.6975467055509890  0.8806989837841999
  0.1730391166039330  0.7150412181695779  0.9141340011429816
  0.6796354815216278  0.9721657869048445  0.8877623250988598
  0.7515322371729677  1.0290698539934406  0.9223736061765525
  0.1737327040820025  0.6871864885702642  0.8127018654911977
  0.1124441656427949  0.6294231750272508  0.7706238451471916
  0.7943257904571578  -0.0016475455688968  0.5640517015421315
  0.7111390267004724  0.0383650201975908  0.6017291443088852
  0.2514552066030165  0.3020241264075790  0.6737903798122105
  0.2492474202945893  0.4091685526640559  0.6803089000553177
  0.4486792549373846  0.6850795743680613  0.8015882983023279
  0.3467746570241151  0.6423669164904039  0.7711524395390835
  0.3729188550253666  0.1792661148266742  0.7798963523626784
  0.5146929372888515  0.1676346891858766  0.7871296705805070
  0.4889556916863501  0.6979666566171252  0.8967136111996651
  0.4514209908395003  0.7895120228067983  0.8701409306666607
  0.1419102704660084  0.2439287109574463  0.9087412450816663
  0.0357469625714209  0.1751680168138149  0.8966536567880354
  0.8483007148711880  0.4232668215381002  0.6246102933585241
  -0.0411083369148012  0.4821032794534507  0.6430659023733327
  -0.0006340919980480  0.1653889907127721  0.7877255861608897
  0.1111905841602208  0.2173597555330198  0.7660073059338675
  -0.0850586353635388  0.4646219424500634  0.5555920668223133
  0.0025665600444871  0.4225528151471776  0.5116360910750379
  0.2722729113521359  0.3119559350591500  0.7579383045331735
  0.2587103150657064  0.2896423558733757  0.8167787918997376
  0.8170609623880749  0.2760454749213098  0.5909979492473595
  0.7062392610144572  0.3017864943789260  0.6261391794063766
  0.2486814948490336  0.1760338584419833  0.6145652946126164
  0.3596155933368287  0.1938386128347193  0.6462451365904969
  -0.0774680918857084  0.5695558655329791  0.4982992834007325
  -0.0065179766688087  0.6119352863742112  0.4550574003767286
  0.4875209166411887  0.6280352516096421  0.5567403791672323
  0.4080140947571339  0.6506953530792197  0.6045514472899527
  0.4326952880972497  0.8990575330846549  0.7612976711892979
  0.4155030081341030  0.7915330256677147  0.7425880606115118
  0.0522830929796925  0.8789133688665515  0.8800898362846387
  0.1244447339698893  0.8868063486359675  0.8303932396219788
  0.3396556793597963  0.9088811661016941  0.6324839556171585
  0.3585226561538942  0.8780780065024036  0.6852935080866234
  0.8283776331679518  0.8123905852122653  0.8138201690812878
  0.9232915444353009  0.8211964771771156  0.7700419573279640
  0.3120652343669841  0.2334225551901757  0.5087695215097692
  0.3379054541168092  0.2883355814421791  0.5560100481694591
  -0.0101719782978507  0.7797264206756719  0.3456797527814662
  0.0088548173420153  0.6994482184260413  0.3849077438976682
  0.5519440852746298  0.3995473154045165  0.6335423296086536
  0.5076273866990516  0.2876994199724650  0.6265726713593840
  0.2267321726547586  0.8799473580648116  0.5092339344296912
  0.2130038024476859  0.7882938623033222  0.4810262849946991
  0.8999497916378467  1.0084694388061777  0.3414744212367518
  -0.0785314759134815  1.0798616198724476  0.3860915629859373
  0.6919805365102761  1.0060863457259566  0.6896619599082612
  0.7905948984662977  0.0860982569543646  0.6730185241619806
  0.2136605971257613  0.0757047472425090  0.8930008929375340
  0.2069586929213678  0.9725753226853401  0.8837783826916585
  0.4918729221648329  0.1301525354266601  0.9079193033528409
  0.6263298861639082  0.1064952983716164  0.8887690144388207
  0.9553305493037588  0.7227612582789184  0.5913429611920901
  -0.0032164443564535  0.7068048983140853  0.5412195630982665
  -0.1692099905566450  0.8897916409604942  0.6028095615262785
  -0.0618381010252887  0.8676619618641092  0.5675103415705384
  0.6733661688558272  0.7050030474754508  0.4195411838809769
  0.7419693468731917  0.6515221428189455  0.4554235801088677
  -0.1027048976743620  0.4882788590636979  0.3912416033323446
  0.8543752337404438  0.4265680697093618  0.3480361063899578
  0.8619772372982053  0.1125684971007669  0.8668699782301252
  -0.1346827492982731  0.2251702931335481  0.8615937191531744
  0.7334539241804119  0.2653773864021594  0.3395266027662385
  0.6652876855413399  0.2212925498300015  0.3882406360796789
  0.2063055147229149  0.0160906310953418  0.5811602606507795
  0.1147025348937155  0.0400018959463682  0.6191402462657802
  0.1629795195081999  -0.0778315739314836  0.6667355777975833
  0.0217528273030264  0.9331013363740347  0.6497033576857647
  0.7893868329443072  0.7097425947926960  0.8828848906614873
  0.8128045202807426  0.8000195974319466  0.9099290373304989
  0.4039837542529973  0.4196627339494668  0.3468251338109924
  0.6241521935791754  0.4341254739740212  0.3529060627034226
  0.7083040673288314  0.6042720120731196  0.3475816424855491
  0.3467668052425209  0.6989233547496058  0.3469520397905676
  0.5803660072950253  0.7399557864113195  0.3396369110984120
  0.4328291382361240  0.6803129917741738  0.4048419778171730
  0.4364746583047872  0.4906213607161972  0.3431766119780643
  0.5713526626240842  0.4972170069481959  0.3408829199844016
  0.3629282067049310  0.5624023476138496  0.3622692929001170
  0.6156374458334452  0.5924737025246161  0.3397294284922973
  0.4204635512931727  0.6592416448178299  0.3641901953969133
  0.5309714930126934  0.6720850162340612  0.3353070071786303
  0.7686279159940074  0.8255974760474212  0.3898980836578478
  0.2817283317530122  0.1301321713574216  0.4983136729194362
  0.6743183644282232  0.9026987906490578  0.7201856968974550
  0.7129389393955917  0.5763732706761651  0.8799676851974992
  0.3943285300633487  0.9667633246485116  0.8020080564515769
  0.1413482891839889  0.5136743224308885  0.9099875102259586
  0.0694673111418778  0.8490104897981555  0.7606654673687989
  0.3735653629081624  0.2604888293142513  0.3855434926421029
  0.6360403490422164  0.4309872015307701  0.8233143857646299
  0.7202298064644893  0.2257432036834774  0.7668244612772208
  0.8087978746267238  0.3306014988205894  0.8705113962431558
  0.2755902036857582  0.5277458670643326  0.6854383753109458
  0.5519858983475200  0.3968528460867088  0.5237101425167391
  0.4546501399846011  0.8863607395343986  0.3770511951691647
  0.5022828036604216  0.8342918263661256  0.5717564494619687
  -0.0422324018980836  0.2001327374688899  0.3790407479770170
  0.4842591167602427  0.5708745751113476  0.5085333696429728
  -0.0114847793853343  0.4104721304426696  0.7274776743156195
  -0.0106209407600709  0.5601771544153389  0.7763771583719576
  -0.3690257589115027  0.0401529953246227  0.3757896453896631
  0.4969147996735462  0.3401051940387178  0.8841206185694620
  0.2441102814283940  0.3323084185709683  0.8802058194425203
  0.5015440408083264  0.8944370570479749  0.8859260928635185
  -0.0241025472839554  0.9577812577923511  0.4704774650054665
  0.0115833719136196  0.5903105888892743  0.3730661693141897
  0.2509058341687535  0.6388112445197532  0.4690388554758652
  0.9122535757079380  0.1438277200404682  0.6797864992379196
  -0.0702280765523783  0.5006321555498052  0.8673182427570217
  0.5504958880556052  0.4894568240388169  0.6548137539420249
  0.3269328788014867  0.9406730411108207  0.5512732577324050
  0.2398009727907478  0.6980840301873271  0.6323001968328777
  0.4760730956097485  0.1305181225281284  0.6709719714401101
  0.8384476291101398  0.2030044565602506  0.5269926369476914
  0.2149215597407534  0.0862266829822057  0.3816009133507343
  0.7912918447585452  0.6703696939327113  0.7260595833668186
  0.8331486235539195  0.6660616467786876  0.6223568543576953
  0.1569298924976396  0.4302745250004803  0.4844533910857940
  0.6978849989973921  0.8393887718730344  0.6298724140027375
  0.6127852076046929  0.5359567489117173  0.7464523010217435
  0.5238503780415799  0.0413827382531994  0.5090341445741146
  0.0502410199350643  1.1202021014016956  0.5122209156730789
  0.5616990151880152  0.1693776508783609  0.4310731842873917
  0.2043973933353819  0.6770110865450821  0.8868129721658778
  0.7325856281060449  1.0264561325120438  0.8870994356005142
  0.1814494038573717  0.6722309768138689  0.7764959517618032
  0.7238607307322491  0.0355729985518076  0.5659699399945108
  0.2204800687465079  0.3509571919069661  0.6950572320500881
  0.4348104552340161  0.6645876827653571  0.7648427029939858
  0.4444156131455735  0.1392734333377934  0.7713747551256696
  0.4383807749800172  0.7192408166074289  0.8674282032439633
  0.1123517796467831  0.1812986572752673  0.9163349444430328
  0.8947015035918512  0.4831260457876875  0.6171718487847074
  0.0240193317161718  0.2099488723553278  0.7604908177819985
  -0.0721860545500339  0.4571266645326441  0.5180586424643715
  0.2642519772727262  0.2631976800763500  0.7833660493539319
  0.8012399311211231  0.2993171103162987  0.6252050730811081
  0.3008102281620025  0.2274241954727135  0.6233242478109985
  -0.0709866925733703  0.6287742877560935  0.4792215437953847
  0.4885600876677542  0.6523588298208343  0.5911228106313974
  0.4441897470606858  0.8542493731275527  0.7313761181224864
  0.1321529080257600  0.8674675889470996  0.8647172442789647
  0.2962370683882962  0.8753168041357564  0.6575989765392571
  0.8388650738724850  0.8251058559944481  0.7784120831289080
  0.3358119803074779  0.3022185355657705  0.5201214577065379
  -0.0048724985153944  0.7688902706358273  0.3826561939826818
  0.5716969458437364  0.3299713090722559  0.6173803987834147
  0.1858981309177682  0.8514806806207046  0.4804348544570716
  0.8907456387989592  1.0152800222075347  0.3794793280500571
  0.7053928780359573  0.0610044390362068  0.6666104381149687
  0.2644660977436082  1.0201664304257156  0.8853014413485333
  0.5683022005317390  0.1580657725819569  0.8930724369656489
  0.0182810308507309  0.7461537781233454  0.5697947128830891
  -0.0987925105756675  0.9214485322507747  0.5842574395398310
  0.6567631712958537  0.6697480183928697  0.4500738267828819
  0.8616304124378484  0.4288460958438696  0.3839538454623174
  -0.0838678035123744  0.1662863827347676  0.8623164957556008
  0.7239906086677628  0.2663508230707213  0.3759402058115641
  0.1569035573538482  0.0717192737484388  0.5911050968863140
  0.0804547095771054  -0.0486456508214978  0.6721114997916799
  0.8249153786895802  0.7709085732130986  0.8775795234357570
  0.2580574944921497  0.5575097443245659  0.3799904234831796
  0.5933804964442755  0.8682877265259835  0.4721169806749186
  0.7513735549492397  0.3370021165343320  0.4649376720552527
  0.1333106064992917  0.3559184072099146  0.3739823777091862
  0.2003959436897149  -0.1264139714055576  0.3815922049048464
