combine
1.000
11.0985002518  0.0000000000000000  0.0000000000000000
0.0000000000000000  14.4173002243  0.0000000000000000
0.0000000000000000  0.0000000000000000  26.7964000702
Pt  H  C  O  K  
96  166  6  81  4  
Direct
  0.0000000000000000  0.0000000000000000  0.0018699899937576
  0.1249999521128992  0.1666699702868031  0.0018699899937576
  0.2499999943280624  0.0000000000000000  0.0018699899937576
  0.3750000365432257  0.1666699702868031  0.0018699899937576
  0.4999999886561249  0.0000000000000000  0.0018699899937576
  0.6250000308712881  0.1666699702868031  0.0018699899937576
  0.7499999829841874  0.0000000000000000  0.0018699899937576
  0.8750000251993506  0.1666699702868031  0.0018699899937576
  0.0000000000000000  0.3333300219343480  0.0018699899937576
  0.1249999521128992  0.4999999922211510  0.0018699899937576
  0.2499999943280624  0.3333300219343480  0.0018699899937576
  0.3750000365432257  0.4999999922211510  0.0018699899937576
  0.4999999886561249  0.3333300219343480  0.0018699899937576
  0.6250000308712881  0.4999999922211510  0.0018699899937576
  0.7499999829841874  0.3333300219343480  0.0018699899937576
  0.8750000251993506  0.4999999922211510  0.0018699899937576
  0.0000000000000000  0.6666699625079541  0.0018699899937576
  0.1249999521128992  0.8333300141554991  0.0018699899937576
  0.2499999943280624  0.6666699625079541  0.0018699899937576
  0.3750000365432257  0.8333300141554991  0.0018699899937576
  0.4999999886561249  0.6666699625079541  0.0018699899937576
  0.6250000308712881  0.8333300141554991  0.0018699899937576
  0.7499999829841874  0.6666699625079541  0.0018699899937576
  0.8750000251993506  0.8333300141554991  0.0018699899937576
  0.0000000000000000  0.2222199683821562  0.0864100026098289
  0.1249999521128992  0.0555599860957249  0.0864100026098289
  0.2499999943280624  0.2222199683821562  0.0864100026098289
  0.3750000365432257  0.0555599860957249  0.0864100026098289
  0.4999999886561249  0.2222199683821562  0.0864100026098289
  0.6250000308712881  0.0555599860957249  0.0864100026098289
  0.7499999829841874  0.2222199683821562  0.0864100026098289
  0.8750000251993506  0.0555599860957249  0.0864100026098289
  0.0000000000000000  0.5555599783168760  0.0864100026098289
  0.1249999521128992  0.3888900080300730  0.0864100026098289
  0.2499999943280624  0.5555599783168760  0.0864100026098289
  0.3750000365432257  0.3888900080300730  0.0864100026098289
  0.4999999886561249  0.5555599783168760  0.0864100026098289
  0.6250000308712881  0.3888900080300730  0.0864100026098289
  0.7499999829841874  0.5555599783168760  0.0864100026098289
  0.8750000251993506  0.3888900080300730  0.0864100026098289
  0.0000000000000000  0.8888900002512240  0.0864100026098289
  0.1249999521128992  0.7222199606033073  0.0864100026098289
  0.2499999943280624  0.8888900002512240  0.0864100026098289
  0.3750000365432257  0.7222199606033073  0.0864100026098289
  0.4999999886561249  0.8888900002512240  0.0864100026098289
  0.6250000308712881  0.7222199606033073  0.0864100026098289
  0.7499999829841874  0.8888900002512240  0.0864100026098289
  0.8750000251993506  0.7222199606033073  0.0864100026098289
  0.2367491433965460  0.4563704187286188  0.1718288187345172
  0.5015644759747772  0.4577566274146468  0.1754402747266085
  0.1170210863841141  0.6236024512444057  0.1731356736257809
  0.8759537439865610  0.2858007381475654  0.1717512873349801
  -0.0039865365045898  0.4583981077095783  0.1732905009641223
  -0.0001714983877836  0.1154497217790174  0.1702996030416387
  0.1331416010068878  0.9466707444224475  0.1754668930819895
  0.3782986408743886  0.9507178086780462  0.1736993960273134
  0.8698372292179110  0.6189162262543674  0.1694021322867240
  0.5055197953966857  0.1207150196030894  0.1753111348014345
  0.2446828446807099  0.1234087339182386  0.1708029066669267
  0.2587008902067050  0.7835593804767628  0.1727306746754902
  0.7484176271161365  0.1158412726735798  0.1706640130509839
  0.6280210445073029  0.2892382733399357  0.1707591241887981
  0.3776584945087706  0.6133064839072057  0.1686599413749635
  0.0009622793943054  0.7853308687930670  0.1703903979952006
  0.7550198513660404  0.7914026132693635  0.1716580448362319
  0.6303764885769427  0.9572037998445747  0.1696498132991963
  0.8780356870938067  0.9502952820811642  0.1749094621673567
  0.7551645801098849  0.4537792388253915  0.1726343507143149
  0.3779723352188643  0.2878134508710676  0.1692509819497612
  0.1220718487419298  0.2874167639525029  0.1723357960473059
  0.5084366717552503  0.7860684084873628  0.1715088370811034
  0.6210304895098007  0.6126623347838942  0.1731897937275931
  0.3666778352002992  0.5122965361123017  0.2662578735243800
  0.1131789817544292  0.5231677407041176  0.2639991261090020
  0.0017411352039989  0.0154029143976422  0.2586644189720170
  0.8701668810823064  0.1812875360530200  0.2574925006651649
  0.7520539983811149  0.3468514362606884  0.2546204686348033
  -0.0085721279759912  0.6847630698055561  0.2603547438806368
  0.6271186187945696  0.8506741975400233  0.2576770431703913
  0.2443652265413196  0.6831137207228534  0.2592595181927416
  0.7483223676688227  0.6841533965336363  0.2575445170664856
  1.0033214763674057  0.3552494529778494  0.2586090539193938
  0.1272185917886524  0.8505966903519496  0.2628398484366796
  0.6220532872160186  0.1808387430543770  0.2588072434032830
  0.2435381328987789  0.0212302803255844  0.2602456222936946
  0.3694583313213851  0.1810532384211856  0.2596925382913221
  0.8657587706448566  0.5163878119324848  0.2562129796694276
  0.4867813420487866  0.0169720734252019  0.2619316707584749
  0.3760254637308454  0.8480061822388529  0.2615102521212543
  0.4982454560293548  0.3401514829339767  0.2541192647579835
  0.1257950876176778  0.1866004697027540  0.2584332203377315
  0.7421847617982499  0.0150750916689433  0.2596574761748610
  0.8762983605485491  0.8540222645878774  0.2646117355885215
  0.2349324704999778  0.3482271591069512  0.2567671877892159
  0.6235869170951762  0.5154925459881546  0.2641958327407209
  0.4990185223451039  0.6870242100324242  0.2636651230273734
  0.7618746101058677  0.8177033136294000  0.3389594691975431
  0.8555640252618802  0.7725844491138638  0.3693545586933808
  0.3092107727567444  1.1750166642605593  0.4813285455065134
  0.1657570870804492  0.1756166034839530  0.4800579765565497
  0.6624855420269532  0.9081627715382971  0.7407531203706144
  0.5360531041511761  0.9072792772569939  0.7179824306510438
  0.6482239887982340  0.5680637178863801  0.8660010285003481
  0.6515581319221212  0.6023583965854226  0.9219004644050166
  0.4515424742984732  0.0531157263555688  0.8197924265367950
  0.3354029974722282  1.0336552578188096  0.8511304114116316
  0.1910000006853358  0.5796627359478993  0.9021952591417464
  0.0740685908320520  0.5227269061719154  0.9025808548700133
  0.0380217775939196  0.7894847464586692  0.7744339046228128
  0.0044719709126420  0.8628966966944068  0.7338829048036833
  0.2880887119844359  0.1749871882703678  0.3829291359107334
  0.3687170208998562  0.2221242996037760  0.3425260384064528
  0.5575471740243836  0.4166386489875324  0.8545188669154355
  0.6830118129222530  0.4343739056806706  0.8553352677469909
  0.6418749767874831  0.3705280290616525  0.7865494437343908
  0.7064173664751189  0.3619846423121420  0.7352907044633828
  0.7595686852313921  0.3477553594014464  0.9157730874823755
  0.8571903681271762  0.4298155519821584  0.8891351748623961
  0.3497245826228184  0.5218025076789481  0.6734231622914159
  0.2502300929668029  0.5918609784804076  0.6640828693138401
  0.5450262326316524  0.3816805196873936  0.5342481853456351
  0.5300365726212363  0.3313730474064510  0.4835405080292672
  0.5211270498518005  0.9230496066087251  0.3451317262420233
  0.5419152470194837  1.0088338528239384  0.3813013780669285
  0.5462186570673642  0.7446867093052633  0.5382944401379189
  0.6053151569655038  0.8094393995784748  0.5709004584281018
  0.0128220874506824  0.2127320962998752  0.3439653216646130
  -0.0946050383726135  0.2391686879134417  0.3826858322773005
  0.5343930847087283  0.5792007226863058  0.4704394469359747
  0.4717363604466175  0.4905354750177143  0.4883525446596427
  -0.0455454390441644  0.3342729557769191  0.7791894627002470
  -0.0324366235106058  0.3875536761718013  0.7318057489486363
  0.8733292533761945  0.5844771343803471  0.7742437242520671
  -0.0684375519815673  0.4877882224056586  0.7850862805110740
  -0.2552501356695063  0.0594237268053837  0.3798640135590432
  -0.3460407716238170  0.0936948192022259  0.3361945556268433
  0.4871148847361780  0.2612383837961498  0.8861753607533284
  0.4993468095476392  0.3460642705692317  0.9291319662706534
  0.2071358311071944  0.3897186699233631  0.8988334711417164
  0.3328743607318318  0.3339950732928429  0.8956694726949889
  0.4735169170309898  0.9510614429246057  0.8664777302090304
  0.4724590841316216  0.9283842969809467  0.9252694689639683
  0.0566443135952572  0.9082895886449366  0.4836646672779455
  -0.0128689040915088  0.9327237165065629  0.4378203792623266
  0.0035757845564371  0.6299244340346631  0.3456732982614730
  0.1163820529166103  0.6149250693591940  0.3792480779872216
  0.2189504371553165  0.6214101579919751  0.4329418702776299
  0.2905629674943681  0.5950591223757734  0.4779607446204399
  0.8782345815525100  0.1943045520671339  0.7083748642195252
  0.8260277785472094  0.2536616583690212  0.6641983404999655
  0.9173422090384493  0.5871961532458854  0.9036390675413315
  -0.0642560107870736  0.5485274520655943  0.8456397694405251
  0.5325896013419775  0.5538886912225428  0.6962165587401888
  0.5009954924133293  0.5657860263429487  0.6372131784444043
  0.4237052693977576  0.8751991651760612  0.5476404648667597
  0.4044545211117134  0.9755003392448846  0.5315607275896925
  0.1447867312828491  0.7420022805635513  0.6377845857214970
  0.1235510977600427  0.6768553890105177  0.5959122814022391
  0.4791599910030647  0.1826322644209098  0.6916139537567993
  0.5174602652523769  0.1338134616943284  0.6477549308312909
  0.7866683890991485  0.1809666176405560  0.5230914302995544
  0.9145201298485227  0.2074629630420438  0.5141795166292710
  0.1038660715994525  0.1254651303196972  0.3857520394388876
  0.1769256876559996  1.0927849775123171  0.3379226780604047
  0.7702785552861972  0.7363036462546450  0.7511643088910549
  0.6869411688451784  0.6430764675811663  0.7567945195090767
  0.8345878822409127  0.6493736929276273  0.6826519352068873
  0.8715738626695230  0.5719842692809283  0.6400869373485206
  0.1725466734110688  0.5069104475248477  0.4839014897534786
  0.1712900965598192  0.4064079021829821  0.5094486871571070
  0.6482991765876710  0.8373354574008766  0.6596389922001964
  0.7107356648318925  0.7379203085032894  0.6394406599696699
  0.4980832567178119  0.6290861508532094  0.7665086368352128
  0.5643343066270776  0.5444332894636037  0.7859505294900163
  0.5940249234603346  0.0487058772013672  0.5292240533895773
  0.5477044845508862  0.1188041551783086  0.4893240442130082
  0.0661595880200942  1.1100097614619111  0.5444708012933882
  0.0390826849987818  1.0514118182439383  0.4948579637474053
  0.5862366060355564  0.1966500934565684  0.4254771724609090
  0.4500491442336915  0.2345305971294755  0.4234218056147762
  0.2666872243229406  0.7238566065240346  0.8953980066928042
  0.1243586775047515  0.7399224289385252  0.9081958517504087
  0.7159203886228991  1.0171086253641484  0.8618902077142939
  0.7200119748345257  1.0366144326390783  0.9187828733860310
  0.1498978510569645  0.6861934821559378  0.8314845384465743
  0.0862503031024169  0.6298160930501724  0.7851371172091540
  0.7939318672152053  -0.0056291402230226  0.5543865304101322
  0.7180247471821749  0.0603692154744082  0.5831153989664768
  0.1349425892257022  0.3461185431575683  0.6758924442855141
  0.1724263580919082  0.4565640384463586  0.6806726653511955
  0.3850835761351494  0.7226547708938937  0.8100950986338211
  0.3023507389798697  0.6939606653565247  0.7639135366867664
  0.4306750810520354  0.2194952306164968  0.7710880907349351
  0.5677363821006423  0.2327459786641796  0.7606484332187338
  0.4889365026612415  0.6959653547262643  0.8830219547145086
  0.4459046019301006  0.8032033587524354  0.8801428964194432
  0.1903929716591476  0.2381003091212710  0.9023187410606359
  0.0500508758117934  0.2115606000462609  0.9007226479963454
  0.8966594094626446  0.4103015616911183  0.6089652638582287
  0.0100229520544417  0.4356717116088890  0.6410770948409632
  -0.0173908409263402  0.1966564824266646  0.8086314509797612
  0.1002407673612988  0.2291808119685894  0.7799972467437488
  -0.0654023120720546  0.5213191056278308  0.5594531031230461
  -0.0096066868208349  0.4899295342684695  0.5104070377501988
  0.2406547978378269  0.3094451311474032  0.7590764607340102
  0.2520815749088489  0.3004845909775968  0.8162464986378579
  0.7970715555523161  0.2931850679210802  0.5753967576468162
  0.6944286110413908  0.3348841155546110  0.6051591814056301
  0.1646030919000713  0.2002671951253056  0.6422019187285390
  0.2976034922073650  0.2222838957878190  0.6574637155941114
  -0.1022285069386730  0.5955743516964115  0.4852150922824671
  -0.0542063455107305  0.6619091110356160  0.4393084868288480
  0.4329402075402672  0.6118824848171821  0.5468779504750327
  0.3529416968355436  0.6621977891608717  0.5864294328466754
  0.3756338047227470  0.9354124803178807  0.7639711576282346
  0.3569069208479377  0.8441865293882322  0.7376080929871144
  -0.0226471213855435  0.8798228302702822  0.9144085904639622
  -0.0158051698986582  0.8877940006358893  0.8546867352032732
  0.3032067915801712  0.9533812759085668  0.6104852126048251
  0.3233453016066723  0.9642208472685776  0.6670065976092361
  0.7416306302074520  0.8533933197258764  0.8172678755402888
  0.8494038313934419  0.8608151368022560  0.7769406346993912
  0.2839967754642169  0.3121650486000416  0.5191662092390967
  0.2572997498501530  0.3332351340580663  0.5731202175765013
  0.0225651002494128  0.8772191491014091  0.3471853780667398
  0.0469335405579253  0.7855333619058260  0.3727383730737623
  0.5397860922540759  0.4159924174355046  0.6354351337788827
  0.5075303931525743  0.3173528864917667  0.6214479746374272
  0.2456387597015957  0.8461855175934876  0.5035843287474578
  0.1926896236230800  0.7719003887595280  0.4683680022659971
  0.8775898435484863  1.0061743116960251  0.3407415887499791
  -0.0655162958330402  1.0803020543991073  0.3795267096161135
  0.6576902652785143  1.0171230566721439  0.6618615557887373
  0.7311815027155468  0.1095281175693676  0.6614039582059321
  0.1777701127573533  0.0694659453170003  0.8979618798108356
  0.1502165684439760  0.9620302442008293  0.9099351813423650
  0.5008583122930014  0.1452963372136275  0.9293964627694902
  0.5857378690103351  0.1435704452426702  0.8822203350326213
  0.9074732825064852  0.6806195313225805  0.6025903477742591
  -0.0662282492970876  0.6960454037702632  0.5428922185401384
  -0.1989701712392946  0.8840512334145304  0.6056391368349529
  -0.0914628824588589  0.8260961054362913  0.5824864858529298
  0.6275452014131745  0.6588193378529144  0.4191364544221097
  0.7389305307597686  0.6482837817614913  0.4531308560474621
  -0.0365991842036604  0.5265599312695586  0.3813584762777327
  0.9196548082381329  0.4557752605251752  0.3437360089552974
  0.8555617960327556  0.1581314347437536  0.8817982037511668
  -0.1188046355259713  0.2705309449494641  0.8757402003523995
  0.7612096090217074  0.3232919226474875  0.3443624967729155
  0.7064529036820434  0.2334884485811172  0.3661313817862689
  0.1425329209632122  0.0696068354121220  0.6312422917401886
  0.0085369529801681  0.0973109713103805  0.6492814207065294
  0.1440951008259543  -0.1124677544667505  0.6450098856607718
  0.0085955268672024  0.8639389795952424  0.6332002596635870
  0.6920498753833257  0.7423365048652607  0.8815810023104974
  0.6516770038210326  0.8420398994562401  0.8889585753868097
  0.3746420110163663  0.4095681207253696  0.3477997349638182
  0.5855974857365006  0.4225887863686915  0.3539539312165975
  0.6979659118216140  0.5897582692818504  0.3485565325465858
  0.3537693294518072  0.7127748670295130  0.3650980712920435
  0.5790575346302034  0.7245078884529614  0.3477054259113567
  0.4315568854290198  0.6513211667932735  0.4145685341537404
  0.4082075183775598  0.4831172426346683  0.3419834865128435
  0.5455355300656983  0.4838752429558089  0.3403810693901139
  0.3444981725778583  0.5564157529284919  0.3669110484894554
  0.5999829344527906  0.5736030277472787  0.3377869600874503
  0.4101701762958192  0.6503854685841690  0.3734632075384337
  0.5267994204578912  0.6611727924367907  0.3400723889077234
  0.7671405568440786  0.7824415276576312  0.3704853385638343
  0.2393333030441838  0.2106311605262726  0.4686455031609129
  0.6177773298232795  0.9131826617794683  0.7065312024451609
  0.6387714205845254  0.6230439407899706  0.8878774022395175
  0.3943221204045312  1.0034586698635821  0.8263064598898839
  0.1629055454232899  0.5179098827195669  0.9133315535812320
  -0.0033447952117656  0.8465971915898435  0.7702018152935406
  0.3376879512249559  0.2295816037957764  0.3765747787301447
  0.6133383315998926  0.4528311609614817  0.8348757289073057
  0.6441203951083916  0.3370798686434343  0.7563696268865538
  0.7951885986639196  0.3745111488071379  0.8840131934753278
  0.2735221688901309  0.5443501242605944  0.6882412216150477
  0.5661248499752005  0.3870011904375738  0.4988675740091764
  0.5043623918278640  0.9470376392999700  0.3788335691102492
  0.5505565133729665  0.8123925317764321  0.5405813923158032
  -0.0114971097720438  0.2141411440053367  0.3790898626900588
  0.4523943264573688  0.5546273268501793  0.4843683115529454
  -0.0906103141040972  0.3812843097305272  0.7592625044707413
  -0.0578142673552613  0.5516914597431978  0.7914455148691811
  -0.3327493030151575  0.0928853235533575  0.3759548668891332
  0.4750416025845406  0.3349483145922671  0.8912423580419304
  0.2455220214963783  0.3341840441512987  0.8851408845278884
  0.5068556098548234  0.9071213240782038  0.8916928333434029
  -0.0109428986389673  0.9459291196429358  0.4738709595480833
  0.0307527256076464  0.6416062183964907  0.3814384754490535
  0.2212944184779984  0.6373518197125667  0.4704640234349922
  0.8491502442567885  0.1890020482341937  0.6731120106226036
  -0.0649686860513479  0.5314121696506454  0.8834555759348800
  0.5026445105585540  0.5230809632089878  0.6652915742859686
  0.3584614843753118  0.9228710525757267  0.5454131202218208
  0.1853909187564596  0.6909076419530298  0.6208346618432852
  0.4675458558879086  0.1864883711492900  0.6560043586693919
  0.8335674506742097  0.2345653218346707  0.5190247410497105
  0.1805440251510577  0.0931817066579279  0.3758481958141935
  0.7682969849657899  0.6709430789195943  0.7438197438829042
  0.8382006107438920  0.6339693500170404  0.6461165714962688
  0.1224474659879919  0.4507131047564420  0.4865013080506190
  0.6769897875148868  0.8033286531121211  0.6292695482238390
  0.5660771810120075  0.5870696659929580  0.7592574027518670
  0.5339087217066976  0.0554586439181141  0.5021479570856239
  0.0576536967142226  1.1132457002003835  0.5082096803012226
  0.5205869716102356  0.2268294526452355  0.4448010268758105
  0.1814550798134532  0.6918131248448958  0.8925214823425904
  0.7497349670871499  1.0621902071782328  0.8869908703121777
  0.1274833598413921  0.6892706530624036  0.7932310693195794
  0.7497701671854640  0.0500370538919693  0.5487874611766923
  0.1063589094038678  0.4102794206941887  0.6853114647561290
  0.3848969998993499  0.7124321236987144  0.7732953502752111
  0.5023294206886924  0.1903117713658639  0.7593335890453486
  0.4236217105763890  0.7391209019175006  0.8702204494637535
  0.1312856264037734  0.1920780496706661  0.9118375850483273
  0.9476523819598260  0.4627747215081624  0.6183735617467337
  0.0120008681423779  0.2095731771200389  0.7737671651483612
  -0.0873195561483926  0.5152668195588392  0.5231625041973545
  0.2497890439251357  0.2598009852626108  0.7866040983072499
  0.7800599335208278  0.3133560603937101  0.6072312932846339
  0.2314220900777508  0.2521237009113117  0.6396690842947274
  -0.1120207512450488  0.6575766984737466  0.4659498340743652
  0.4330880060502266  0.6354443561672318  0.5801072782976993
  0.3825036330211817  0.9080862730134109  0.7295163710605883
  0.0318556145135610  0.8743435849628386  0.8847028454491596
  0.2646359581803546  0.9738672862159744  0.6408849483479079
  0.7629649633180539  0.8706929493111450  0.7816568808544315
  0.2774328019590414  0.3642289592020312  0.5416394058857501
  0.0157951711963577  0.8445850606673629  0.3790551790274189
  0.5555580193999631  0.3711394048784052  0.6090030212359865
  0.1994647424854510  0.8387167627555665  0.4709113720179585
  0.8917296262614299  1.0198741881588245  0.3774792506344493
  0.6684419062293397  0.0728274069669642  0.6425991701754541
  0.2184684679091444  1.0052773960184140  0.9037238200563728
  0.4987324494138098  0.1546190484639251  0.8915454635329189
  -0.0347735876959959  0.7086988876862408  0.5762477557413461
  -0.1225378258003312  0.8909360954244577  0.5880395722977573
  0.6483968935562159  0.6513181144881044  0.4553985111966915
  0.9189520833993661  0.4656556599469689  0.3801669986159438
  -0.0877929056083026  0.2066525856122731  0.8709901084084614
  0.7573400948688348  0.2850224958050019  0.3748691537700656
  0.0662633479582726  0.1029382809340822  0.6224616795093069
  0.0736542694376587  -0.1536758800490036  0.6554996033901541
  0.7204334760188179  0.8086597759301403  0.8777957337171687
  0.2380506790339991  0.5433819247376024  0.3836109447302813
  0.6847928848915755  0.8938257654425503  0.4632750689674019
  0.7632527600408122  0.3932974310920482  0.4539755147605991
  0.1398810561046943  0.3563983747761262  0.3932120831789536
  0.2602408573114702  -0.0810883751196047  0.3835740202629123
