combine
1.000
11.0985002518  0.0000000000000000  0.0000000000000000
0.0000000000000000  14.4173002243  0.0000000000000000
0.0000000000000000  0.0000000000000000  26.7964000702
Pt  H  C  O  K  
96  166  6  81  4  
Direct
  0.0000000000000000  0.0000000000000000  0.0018699899937576
  0.1249999521128992  0.1666699702868031  0.0018699899937576
  0.2499999943280624  0.0000000000000000  0.0018699899937576
  0.3750000365432257  0.1666699702868031  0.0018699899937576
  0.4999999886561249  0.0000000000000000  0.0018699899937576
  0.6250000308712881  0.1666699702868031  0.0018699899937576
  0.7499999829841874  0.0000000000000000  0.0018699899937576
  0.8750000251993506  0.1666699702868031  0.0018699899937576
  0.0000000000000000  0.3333300219343480  0.0018699899937576
  0.1249999521128992  0.4999999922211510  0.0018699899937576
  0.2499999943280624  0.3333300219343480  0.0018699899937576
  0.3750000365432257  0.4999999922211510  0.0018699899937576
  0.4999999886561249  0.3333300219343480  0.0018699899937576
  0.6250000308712881  0.4999999922211510  0.0018699899937576
  0.7499999829841874  0.3333300219343480  0.0018699899937576
  0.8750000251993506  0.4999999922211510  0.0018699899937576
  0.0000000000000000  0.6666699625079541  0.0018699899937576
  0.1249999521128992  0.8333300141554991  0.0018699899937576
  0.2499999943280624  0.6666699625079541  0.0018699899937576
  0.3750000365432257  0.8333300141554991  0.0018699899937576
  0.4999999886561249  0.6666699625079541  0.0018699899937576
  0.6250000308712881  0.8333300141554991  0.0018699899937576
  0.7499999829841874  0.6666699625079541  0.0018699899937576
  0.8750000251993506  0.8333300141554991  0.0018699899937576
  0.0000000000000000  0.2222199683821562  0.0864100026098289
  0.1249999521128992  0.0555599860957249  0.0864100026098289
  0.2499999943280624  0.2222199683821562  0.0864100026098289
  0.3750000365432257  0.0555599860957249  0.0864100026098289
  0.4999999886561249  0.2222199683821562  0.0864100026098289
  0.6250000308712881  0.0555599860957249  0.0864100026098289
  0.7499999829841874  0.2222199683821562  0.0864100026098289
  0.8750000251993506  0.0555599860957249  0.0864100026098289
  0.0000000000000000  0.5555599783168760  0.0864100026098289
  0.1249999521128992  0.3888900080300730  0.0864100026098289
  0.2499999943280624  0.5555599783168760  0.0864100026098289
  0.3750000365432257  0.3888900080300730  0.0864100026098289
  0.4999999886561249  0.5555599783168760  0.0864100026098289
  0.6250000308712881  0.3888900080300730  0.0864100026098289
  0.7499999829841874  0.5555599783168760  0.0864100026098289
  0.8750000251993506  0.3888900080300730  0.0864100026098289
  0.0000000000000000  0.8888900002512240  0.0864100026098289
  0.1249999521128992  0.7222199606033073  0.0864100026098289
  0.2499999943280624  0.8888900002512240  0.0864100026098289
  0.3750000365432257  0.7222199606033073  0.0864100026098289
  0.4999999886561249  0.8888900002512240  0.0864100026098289
  0.6250000308712881  0.7222199606033073  0.0864100026098289
  0.7499999829841874  0.8888900002512240  0.0864100026098289
  0.8750000251993506  0.7222199606033073  0.0864100026098289
  0.2522809745889670  0.4486265023737507  0.1712583017598509
  0.4983213666461846  0.4531749993377989  0.1692045091624936
  0.1244253722277507  0.6153444430009948  0.1732687650630881
  0.8801350160906430  0.2796834430418319  0.1722307695141661
  -0.0012673356472393  0.4483627991185745  0.1710403080970940
  -0.0059931057972641  0.1175470275734154  0.1701903959805285
  0.1256850860073429  0.9505752273786338  0.1707054894432265
  0.3793299019042871  0.9498230835215111  0.1733078340162779
  0.8814097916980685  0.6189930156658922  0.1697679329007736
  0.4998092361803878  0.1229241697563419  0.1751362075542027
  0.2518093032206530  0.1167851270421713  0.1745760315917348
  0.2493846879222359  0.7791099856592865  0.1708237715442437
  0.7413735183603322  0.1171511935676574  0.1697302666210735
  0.6218355674840568  0.2847267873690484  0.1694440638035343
  0.3788371601846017  0.6190207251048151  0.1786732636047058
  0.0025578826378272  0.7854792559922457  0.1728697188564339
  0.7624887371090989  0.7836313211094653  0.1725878767216615
  0.6267217746354423  0.9536858213388270  0.1696065614930968
  0.8734926811960664  0.9506097545711217  0.1709438286299556
  0.7445021777928866  0.4521803301780467  0.1717777079921633
  0.3687640169523107  0.2838464036146332  0.1736745483463468
  0.1232557139851522  0.2869259844452499  0.1709702927631281
  0.4994636544159167  0.7808804694532617  0.1705595925246196
  0.6333302146080507  0.6206770215423237  0.1754567303101513
  0.3751350137352799  0.5114631952084513  0.2577412337517937
  0.1198029706206795  0.5147703821823090  0.2588847083983779
  -0.0018207796946910  0.0124632315277130  0.2591366613503533
  0.8667944185737861  0.1862676541183276  0.2548528367172206
  0.7501579206208258  0.3488764458426344  0.2604631429862029
  -0.0023913037345470  0.6858061872731838  0.2607555122141393
  0.6232046288126390  0.8552832317396442  0.2552516120031548
  0.2420165723800718  0.6846593379225591  0.2610879647703283
  0.7574903234638857  0.6878767825604820  0.2581804712191089
  0.9956678964626592  0.3475730939176792  0.2570081862137460
  0.1236994044287507  0.8518752020922359  0.2616852208703295
  0.6323460756746639  0.1819168343653843  0.2630282391715087
  0.2368738308830174  0.0139765904895543  0.2604723508237988
  0.3655863798932603  0.1830842558547163  0.2609950303278854
  0.8740975808804999  0.5148854218550769  0.2545025945587436
  0.4949952473721851  0.0226388212371326  0.2650931060026893
  0.3762967799926540  0.8555512640785620  0.2583915529608796
  0.5035578295989672  0.3399094283644174  0.2611461842362234
  0.1106021221201411  0.1849379341983881  0.2593382314935759
  0.7464481151186524  0.0204038483366107  0.2586093526274285
  0.8717705398286415  0.8588716439732190  0.2631600262395757
  0.2468657727025453  0.3489179842715138  0.2580453181168074
  0.6230806261754560  0.5141140906677539  0.2616883244775223
  0.4858875218411066  0.6899532963969311  0.2658434322385765
  0.7607153400506264  0.7878774387214729  0.3447030107291221
  0.8490269535716549  0.8202590877082315  0.3862389364797520
  0.1077481006684713  1.1558680253888594  0.4277442609743232
  0.0831751146061635  0.1534149471807500  0.4892936115467596
  0.7090121658305840  0.8944301163795805  0.7576309246284691
  0.5760399105782898  0.9179131308575174  0.7424556930102405
  0.6963844184214446  0.5857394196776544  0.8713300470747052
  0.7288094480772879  0.5774488929257360  0.9291841495339401
  0.4116409289317308  0.0252456876070687  0.8275513343249800
  0.3424759987714144  0.9783923007322179  0.8748981181943154
  0.1578040618610566  0.5561454386436142  0.9110702560770427
  0.0661877703774311  0.4748893987558217  0.9039884026899140
  0.1161197378169167  0.7953295803172282  0.7692214471832280
  0.1074636950705628  0.9082409740715356  0.7652228427132508
  0.3054868031966863  0.2328412164742160  0.3758787567252806
  0.3582147906114804  0.2886938481370278  0.3341082839279007
  0.4498601035297766  0.3652999903007645  0.8042704968294327
  0.5704914099698394  0.3721670285506257  0.8374965875829492
  0.6004823030588418  0.2598888844309908  0.7879331966005542
  0.6846548485024020  0.2351316421701687  0.7418152429439988
  0.5530983153065588  0.3525999780341552  0.9146593306597496
  0.6221270105102868  0.4462697153559753  0.9033656734294058
  0.4745783485427014  0.5699536983942476  0.6641495146279613
  0.3431650023148220  0.6185591048779725  0.6641452442670285
  0.5167164135415423  0.4194352205350988  0.5155433650456350
  0.4440013106906762  0.4105790171326896  0.4674445457070872
  0.5566189753699456  0.8989515190961674  0.3591441630513084
  0.5427405495731792  0.9895505873460220  0.3851547578391924
  0.4784682917621015  0.7872602355654339  0.5732120083018807
  0.5521737452775286  0.8744287734850232  0.5885990148855946
  0.0238453481097213  0.1221868034232138  0.3370736769542710
  -0.0492362012436207  0.1710025867148578  0.3787774510609568
  0.5200582844392777  0.6617124622486801  0.4637454073586404
  0.4671772929643426  0.5608949362634658  0.4837284261147865
  0.0259924239361272  0.3876223501457490  0.7048718885827199
  0.1454573510811226  0.4290458123133336  0.6851766391082608
  0.9281051074742653  0.5813772614426475  0.7648027676557614
  0.0341975990078880  0.5209011226486151  0.7443239507451919
  -0.3128500706874219  0.0598195880769954  0.3823801180776863
  -0.3866346076087224  0.0857864642171624  0.3328841142889170
  0.6179917741397190  0.1691269228957455  0.8778612097884096
  0.5367233671895352  0.1322401190402185  0.9212311963558377
  0.3276335547778412  0.3217713587514087  0.9027793287279221
  0.4044665460066967  0.2365082164449104  0.8868731624226204
  0.5318601419541034  0.9127912002567009  0.8590949980292699
  0.5840060485513606  0.8614599667048983  0.9059172932298595
  0.0016157433160477  0.8753544828544866  0.4959651407869433
  -0.0790920488430528  0.9042167571795122  0.4497272790236429
  -0.0280640170233347  0.6359187849710706  0.3398125273075921
  0.0918886592929167  0.5978057265932023  0.3721468249718355
  0.2664241795210516  0.6547197702237143  0.4921669269174173
  0.1397210119401945  0.6113446002077647  0.5029560000930158
  0.8546264288782327  0.2592895268421521  0.7097652585636309
  0.8006727339632026  0.2717676839659651  0.6535213999500977
  0.8831809704027599  0.5065277817681410  0.8830348781780744
  -0.0371563798570999  0.4905211669228012  0.8314281258129355
  0.6704814113414228  0.5747808373812474  0.6258543284681907
  0.5501739388175161  0.6013033457809478  0.5995056905559963
  0.3941022288566075  0.9555226836076284  0.5474297261300186
  0.3667247392493319  1.0416040353997085  0.5154323975577557
  0.2572381954793370  0.7631664754511427  0.6341215328583194
  0.2093827832209231  0.6975151382885391  0.5965537983431327
  0.4385334512210908  0.0641047006180988  0.6884553903087889
  0.5450190500575935  0.0480619331095079  0.6520691448823255
  0.7625919344577511  0.1664811061265485  0.5361524699572366
  0.8673118306357508  0.2247529480962395  0.5073366983917602
  0.2245249304378630  0.0994479713395587  0.3511897741057186
  0.3554359290986379  1.0920081352446418  0.3387973320377524
  0.7803268302575757  0.6925182984101147  0.7580709331284583
  0.7274977885134077  0.5946747964538743  0.7627244376206036
  0.7695546404312421  0.6416911723324527  0.6844479671654309
  0.8456741484938729  0.6009485342544890  0.6413608984929493
  0.1953196772913912  0.4875649211738112  0.4271378540182608
  0.2106429645231429  0.4096558360174371  0.4697602385366255
  0.6792246419850642  0.8475881292326568  0.6720773102849701
  0.7011241894992052  0.7622487965588284  0.6332693194139696
  0.5398701985368008  0.6042000147793232  0.7928655722686941
  0.5794040766865840  0.4941022954695300  0.7950913172883144
  0.5381396060185112  0.1412759424449659  0.5142956169073625
  0.4720545632505889  0.1721457513256787  0.4647778972463686
  0.0965760999758650  1.0902593379866432  0.5638037408876184
  0.0478761715587494  1.0334955861490667  0.5161020106906017
  0.5531861540755711  0.1987957212522539  0.3945271597231044
  0.4531712011255117  0.2806667460583083  0.4082014579736180
  0.2605237487948930  0.6656009341142732  0.8957827353717683
  0.1361140453778874  0.7018614154711690  0.9109864286228281
  0.7559170787187529  0.9453649872274721  0.8829710309114446
  0.8082307658320937  1.0157400822462943  0.9240546196105209
  0.1750953463721216  0.6908635532685943  0.8213963937595339
  0.1125791797857875  0.6334483194022141  0.7779843039656634
  0.8189230471230505  0.0164908171711145  0.5535535758176673
  0.7224652203435832  0.0340565488379319  0.5915048633800196
  0.3143600080591206  0.3612005176962901  0.6697074244408404
  0.3421991363908868  0.4587112585027061  0.6942829877655705
  0.3426457300465653  0.6645622282007513  0.7763978171320354
  0.4310576761868430  0.6367840489390758  0.7342882812412475
  0.3889604102139720  0.1488761224714118  0.7549467752273714
  0.5287863335181872  0.1309669520662061  0.7560992086594407
  0.4467751368835446  0.6258015484267312  0.9050453542813892
  0.4474118423518221  0.7315253292238401  0.8978972991285250
  0.1893318655247318  0.2134640065282697  0.8982212510689820
  0.0502806133837313  0.1972947038520942  0.8892750642576200
  0.8556715907773025  0.4338886533663567  0.6166748192223369
  -0.0273154385477292  0.4856931610397942  0.6337136649554903
  -0.0382482441293050  0.3041759187693495  0.7850465679975568
  0.0659948957410898  0.2551122704929715  0.7478139292518198
  -0.0654034989801684  0.4784780261198268  0.5446508073011864
  -0.0139141361802424  0.4771511866351528  0.4854955298740956
  0.2563389281122546  0.3215817150693418  0.7563790837874561
  0.2686534103755526  0.2675749652419618  0.8098196791528212
  0.7933412984310186  0.3026084656922531  0.5641783525210357
  0.6860872936291588  0.3406507113878497  0.5853969575691187
  0.2633037992611707  0.1991122584144826  0.6311086234903261
  0.3937501334462959  0.1965592825433162  0.6461479392172237
  -0.1301953105029347  0.5887303034790005  0.5024284285698647
  -0.1221453413653920  0.6770732161037419  0.4666013140625079
  0.4517432946299985  0.6533862086136428  0.5364280906257090
  0.3858377684233049  0.6813255847682071  0.5915758540576859
  0.4062128861662022  0.8965564821292739  0.7862811171651067
  0.4475093846661384  0.8029738216512782  0.7647127930847861
  -0.0233442261496530  0.9035007383383008  0.8923881803881994
  0.0516493177181332  0.8630216024445807  0.8486440210074931
  0.3735529620795029  0.9210401929633624  0.6496011194786613
  0.3583232437152955  0.8609651763912460  0.6972681140993483
  0.8257158853164608  0.7782197061339724  0.8165661384207229
  0.9049694051294052  0.8164776337500133  0.7716496072543401
  0.2420645501597645  0.2547768297568586  0.4760862119978336
  0.3382416487300763  0.2835193388364404  0.5203068226916474
  0.0133743816400712  0.8434411839745405  0.3430700354717979
  0.0328137587815917  0.7596249880918143  0.3754305077788351
  0.5323101743536782  0.4468477304052807  0.5943957772078867
  0.4521994161676070  0.3505563468035077  0.5987479255895529
  0.2143449635831813  0.9162993679935947  0.5001072482569476
  0.2019377603777152  0.8085101031435278  0.5031060842867681
  0.7989106817708961  0.9552061559825529  0.3628073544293607
  -0.1249897626641057  1.0467484857715601  0.3841372522776778
  0.7090005204283163  0.9992989804996247  0.6875883240670874
  0.7569704139563769  0.1026569451613026  0.6823580798315617
  0.1836680599767881  0.0647734476269007  0.9056155257618855
  0.1489306543586305  0.9601808870684126  0.9056476903809292
  0.7920358264328854  0.0869003901637784  0.8614256118257646
  0.7270429936685654  0.1586411673903426  0.8200504701389909
  0.9002435435345926  0.7181163302994672  0.6145315660111017
  -0.0468081130435390  0.7210623529763350  0.5613556562707241
  -0.1034373305090310  0.9173779947932079  0.6461116354712932
  -0.0053519599903029  0.8613806907113198  0.6213588307675886
  0.6743016654062116  0.7350090886252947  0.4309535596664873
  0.7020362438912712  0.6879548408434124  0.4840600237725585
  -0.0933040584048329  0.5180213842888616  0.3778940461805256
  0.8176018047418899  0.4640737413737843  0.3435824041132583
  0.8798932665353764  0.2426160758173316  0.8573319621372758
  -0.0725689525636021  0.3439258881799937  0.8684509764421617
  0.8142703929419934  0.2601078042253279  0.3447149305541420
  0.7473638118857316  0.2028993880885927  0.3831578842084130
  0.2687347614211458  0.0615498690388883  0.5985403900405452
  0.1717937971655919  0.0697811707426552  0.6434977174219842
  0.1933471749349175  -0.0362310714054206  0.6827469278772956
  0.0557175619201079  0.9699246233931392  0.6799325646343812
  0.8476670941980832  0.7691477018845533  0.9057561387468435
  0.7197064554739753  0.7748762646816848  0.8864255897125332
  0.3842802293047022  0.4223317606605250  0.3456896619035612
  0.6048650425548481  0.4387049780540374  0.3529280872551704
  0.6866712791725162  0.6036361223741212  0.3475127097858148
  0.3167215582961221  0.6989103007313727  0.3520877983640875
  0.5521200969118493  0.7329279344679146  0.3515642643161092
  0.4053594694625837  0.6839430155085614  0.4073368089409382
  0.4138649614081905  0.4880569670832141  0.3404889287366093
  0.5516053038794236  0.4951883406899527  0.3387795499364719
  0.3371525016267964  0.5594014610451508  0.3630458330639258
  0.5924487512566027  0.5883469357115259  0.3391054360546490
  0.3859980459076174  0.6553261520472172  0.3687668957924409
  0.5031326878146767  0.6689869263347668  0.3420598826815317
  0.7599399144881857  0.8038294445978829  0.3811518775821804
  0.1015278411258539  0.1943576165929534  0.4590980882719811
  0.6594608253680915  0.9298606413497852  0.7346557007742520
  0.7358015053858792  0.5488693433297918  0.8963611772019914
  0.4093604259875699  0.9717456633098741  0.8493409874451889
  0.1456257860189600  0.4902979290107146  0.9232350337354608
  0.0645354035004717  0.8512850995787528  0.7721169357711256
  0.3391526118125307  0.2935097319932142  0.3704748595928060
  0.5387946781755643  0.3611951000453580  0.7995568855059302
  0.6547209468343709  0.2055867232274350  0.7728288078453605
  0.5932784047224847  0.3883683022194857  0.8873485654979076
  0.3978423170089024  0.5755213518904762  0.6831110753886941
  0.5108042358498439  0.4488771272094540  0.4812138602095351
  0.5204140742045984  0.9231212593234448  0.3894594135353984
  0.5018136905206391  0.8551632651527595  0.5612471474638552
  0.0243450911807817  0.1308484128755524  0.3764986940137403
  0.4453799687032773  0.6302311795092803  0.4795196726514651
  0.0575035082236894  0.4391930410055281  0.6858779045935787
  0.0043650825788054  0.5541016080899342  0.7742252093919105
  -0.3807342499194590  0.0988889270403761  0.3716508466327608
  0.5325490333021717  0.1666903008338153  0.8894038210902901
  0.3381088106378521  0.2784602273547315  0.8737005701163670
  0.5970010307766941  0.8693169399341215  0.8701533289626681
  -0.0812393565115943  0.8925777764973195  0.4846822493572012
  0.0076233085354283  0.6211377332148743  0.3733083884437369
  0.1806565322260382  0.6725174792058380  0.5027937024489813
  0.7884297992677727  0.2395847705021839  0.6868150444270716
  -0.0498261114523391  0.4720572043876155  0.8681996275862573
  0.5836889036741122  0.5518037198525678  0.6204993061172751
  0.3262490155201602  0.9894370458663738  0.5301309813588693
  0.2547885449785326  0.6982760113527977  0.6272399097889179
  0.4487403378661244  0.0551705194748845  0.6507028084190660
  0.7837369653426167  0.2260261120877240  0.5184559051105520
  0.2995470831980938  0.0893954172451574  0.3682164372434806
  0.7886815927476664  0.6294493238272434  0.7426445968960885
  0.7802819312632346  0.6450934156746095  0.6466143955646158
  0.1553709855455770  0.4594227987939120  0.4587010218126013
  0.6857408760760866  0.8274342894790625  0.6384547584295083
  0.6083424663710741  0.5584916157970169  0.8017645053371397
  0.4598458464577029  0.1363227261708373  0.4958390286938581
  0.0371265568276373  1.0899591180125383  0.5335346320642276
  0.5316837057820464  0.2515730544118638  0.4189699258515439
  0.1723575382889915  0.6609038720605982  0.8855993077701083
  0.8217024340582355  0.9912264560193591  0.8887363360343445
  0.1768817486291999  0.6822107799851651  0.7835230052281905
  0.7427097385579751  0.0514733791801878  0.5554447409468354
  0.3075473885083180  0.4015026954799404  0.6992774461237600
  0.4265298350407521  0.6767445021263488  0.7639469793133004
  0.4501106998569289  0.0944556612967473  0.7542466608668285
  0.4270345442873092  0.6722290174248321  0.8810697234684101
  0.1222762667397248  0.1714904484775022  0.9070994464003231
  0.9060122147556989  0.4936075878343253  0.6104130026924888
  -0.0119974891452928  0.2904635656640995  0.7509323999001561
  -0.0842982828917144  0.4773763988627880  0.5079593644236260
  0.2527723106592721  0.2592025142267190  0.7726386922706320
  0.7697408592223500  0.3407654198196831  0.5942151198812564
  0.3283220769318828  0.2423232869571200  0.6419157499528860
  -0.1511611607007811  0.6584459881815988  0.4991003162351345
  0.4610030021281654  0.6779830774505903  0.5722769934329296
  0.4408362265979580  0.8702163372622110  0.7560039648060382
  0.0578875754582969  0.8814085477308555  0.8835078936266717
  0.3185083654817852  0.8781754783645510  0.6663207659060277
  0.8230387071639277  0.7941621843319777  0.7797911866877140
  0.2939502694583342  0.3024369482193887  0.4907263042368010
  0.0168841829119757  0.8240970405731333  0.3793394337885079
  0.5236313101905334  0.3797918794373899  0.5808002275054792
  0.1673894154751854  0.8648626242577538  0.4865504892240807
  0.8135660984587156  0.9994059425504948  0.3924667833159988
  0.7216810567536793  0.0486626111813569  0.6630084422742162
  0.2210346885384029  1.0007065144334604  0.9123171072328872
  0.7706045763987717  0.1493330176943397  0.8528865112786556
  -0.0270622046930429  0.7422098591152524  0.5957130290740900
  -0.0311511262563541  0.9253834698061696  0.6275587795914889
  0.6362428415996804  0.7093399185419640  0.4599746761135741
  0.8426881494175901  0.4661124160523111  0.3776734164995046
  -0.0478096821067281  0.2799995933979380  0.8591204494779053
  0.8172544122192492  0.2407542954435859  0.3805110143895496
  0.1936031849484811  0.0933938258031507  0.6089895827480158
  0.1246294107688709  0.0026116458084529  0.6963124799830896
  0.8010088239767515  0.7513899492597944  0.8764985047495112
  0.2316612783229887  0.5465346656733421  0.3815879052750567
  0.6459111439257172  0.9283667193141119  0.4835358703801922
  0.7324963511877658  0.3758485192579177  0.4483676088625559
  0.0802525700403120  0.3508847739935040  0.3690219764220066
  0.2720067497237194  -0.1087847031344004  0.3833843506846598
