combine
1.000
11.0985002518  0.0000000000000000  0.0000000000000000
0.0000000000000000  14.4173002243  0.0000000000000000
0.0000000000000000  0.0000000000000000  26.7964000702
Pt  H  C  O  K  
96  166  6  81  4  
Direct
  0.0000000000000000  0.0000000000000000  0.0018699899937576
  0.1249999521128992  0.1666699702868031  0.0018699899937576
  0.2499999943280624  0.0000000000000000  0.0018699899937576
  0.3750000365432257  0.1666699702868031  0.0018699899937576
  0.4999999886561249  0.0000000000000000  0.0018699899937576
  0.6250000308712881  0.1666699702868031  0.0018699899937576
  0.7499999829841874  0.0000000000000000  0.0018699899937576
  0.8750000251993506  0.1666699702868031  0.0018699899937576
  0.0000000000000000  0.3333300219343480  0.0018699899937576
  0.1249999521128992  0.4999999922211510  0.0018699899937576
  0.2499999943280624  0.3333300219343480  0.0018699899937576
  0.3750000365432257  0.4999999922211510  0.0018699899937576
  0.4999999886561249  0.3333300219343480  0.0018699899937576
  0.6250000308712881  0.4999999922211510  0.0018699899937576
  0.7499999829841874  0.3333300219343480  0.0018699899937576
  0.8750000251993506  0.4999999922211510  0.0018699899937576
  0.0000000000000000  0.6666699625079541  0.0018699899937576
  0.1249999521128992  0.8333300141554991  0.0018699899937576
  0.2499999943280624  0.6666699625079541  0.0018699899937576
  0.3750000365432257  0.8333300141554991  0.0018699899937576
  0.4999999886561249  0.6666699625079541  0.0018699899937576
  0.6250000308712881  0.8333300141554991  0.0018699899937576
  0.7499999829841874  0.6666699625079541  0.0018699899937576
  0.8750000251993506  0.8333300141554991  0.0018699899937576
  0.0000000000000000  0.2222199683821562  0.0864100026098289
  0.1249999521128992  0.0555599860957249  0.0864100026098289
  0.2499999943280624  0.2222199683821562  0.0864100026098289
  0.3750000365432257  0.0555599860957249  0.0864100026098289
  0.4999999886561249  0.2222199683821562  0.0864100026098289
  0.6250000308712881  0.0555599860957249  0.0864100026098289
  0.7499999829841874  0.2222199683821562  0.0864100026098289
  0.8750000251993506  0.0555599860957249  0.0864100026098289
  0.0000000000000000  0.5555599783168760  0.0864100026098289
  0.1249999521128992  0.3888900080300730  0.0864100026098289
  0.2499999943280624  0.5555599783168760  0.0864100026098289
  0.3750000365432257  0.3888900080300730  0.0864100026098289
  0.4999999886561249  0.5555599783168760  0.0864100026098289
  0.6250000308712881  0.3888900080300730  0.0864100026098289
  0.7499999829841874  0.5555599783168760  0.0864100026098289
  0.8750000251993506  0.3888900080300730  0.0864100026098289
  0.0000000000000000  0.8888900002512240  0.0864100026098289
  0.1249999521128992  0.7222199606033073  0.0864100026098289
  0.2499999943280624  0.8888900002512240  0.0864100026098289
  0.3750000365432257  0.7222199606033073  0.0864100026098289
  0.4999999886561249  0.8888900002512240  0.0864100026098289
  0.6250000308712881  0.7222199606033073  0.0864100026098289
  0.7499999829841874  0.8888900002512240  0.0864100026098289
  0.8750000251993506  0.7222199606033073  0.0864100026098289
  0.2574976800164062  0.4503065140141531  0.1734384374029579
  0.4985726402540351  0.4503284606959227  0.1719763981813698
  0.1202944991314002  0.6129711873728481  0.1713266598226952
  0.8709787692109335  0.2878587349526809  0.1732640928832552
  -0.0006655755761957  0.4469865787727876  0.1744356295455591
  -0.0020104752979017  0.1206460190492740  0.1724729878824169
  0.1301574361874449  0.9568635569957971  0.1701147579920416
  0.3732164221853498  0.9554159102259239  0.1700841437640912
  0.8716179294162819  0.6182729696490586  0.1736698168525764
  0.4942671313820368  0.1165993202018944  0.1721436896417247
  0.2512960511081366  0.1221655037696571  0.1691841949524290
  0.2490787344760080  0.7880609101661155  0.1700059134833629
  0.7421429043499946  0.1164622612123986  0.1698415983369826
  0.6162968749935980  0.2833751461535069  0.1736630519289477
  0.3730785313203429  0.6121420423585928  0.1729750259832348
  0.0143363985034099  0.7912870867023858  0.1733991339966331
  0.7432038834312079  0.7809988469284789  0.1727012911128498
  0.6162273173973024  0.9539707235768394  0.1718626741926244
  0.8729788270742831  0.9464121259056661  0.1723650817684454
  0.7430243455517834  0.4532152938028486  0.1748334116533077
  0.3686335838336769  0.2871958329633131  0.1768078124930249
  0.1218456779221749  0.2863932160641730  0.1729761209138942
  0.4983311992900125  0.7810235661126851  0.1701940261248667
  0.6252305436020137  0.6113119934511122  0.1743265296555611
  0.3843311808825885  0.5130132053942928  0.2624943507811832
  0.1361118058590843  0.5100989988336786  0.2560699390150875
  0.0045171426825772  0.0211523396444223  0.2549471145639979
  0.8732958433756008  0.1805409297791313  0.2568972688855895
  0.7557505196289606  0.3449512579975053  0.2642544446473906
  0.0015116442689884  0.6838590702565952  0.2595694644757588
  0.6332142380733121  0.8463769357686705  0.2586901721962633
  0.2486022691897057  0.6785443113414100  0.2537515399451659
  0.7595366487497114  0.6812080995682286  0.2571811342622846
  1.0029826905301580  0.3395339450966919  0.2621484159550231
  0.1198365972991976  0.8543662219115684  0.2585992801587650
  0.6323642630689442  0.1796173243333935  0.2572511801861805
  0.2550013492625725  0.0159650001469797  0.2587975046212333
  0.3872734445812088  0.1728525726335144  0.2617103168943565
  0.8835420984839483  0.5146379867497173  0.2656609376987432
  0.5041836725725594  0.0089862490816161  0.2588415489367722
  0.3771702161939487  0.8480097566736775  0.2532325508994893
  0.5013621442138138  0.3394699319468205  0.2571775891144382
  0.1395138192882300  0.1807375034341089  0.2636318445236317
  0.7533632933011778  0.0156396632789790  0.2585680071147067
  0.8766411112638436  0.8501656864466881  0.2608385498495743
  0.2507996965669808  0.3416551736293720  0.2610116448357609
  0.6320969874071251  0.5126615027439274  0.2683012509689829
  0.5102522760750080  0.6823414229537306  0.2611049629901939
  0.6878473432355758  0.8223937869668435  0.3578652463867482
  0.8121334774973906  0.7984930206001134  0.3812077805503431
  0.2547346560668391  1.0923845707988418  0.4593081926996374
  0.1817833075935453  0.0818579358922451  0.5086671823301475
  0.6785489767122915  0.9101393369809705  0.7569203526243895
  0.5520738985978098  0.9423369858457419  0.7365144132120989
  0.5720035271495708  0.5637340994953592  0.8813762500420723
  0.5521288383812188  0.6404744408551937  0.9233916343754350
  0.4083311432790213  0.0745944358353137  0.8374097289902314
  0.3197565795274400  0.9969231873922391  0.8619991633461084
  0.1801807827751929  0.5584676512062388  0.8995260191351553
  0.0491622216354420  0.5088992426289181  0.9003637973942195
  0.0803756878732623  0.8102245988060610  0.7813408259337028
  0.0402908647253917  0.8869804162603464  0.7450832500557969
  0.2825095762728376  0.2014230419094291  0.3882787911115981
  0.3939172000190700  0.2507571138878417  0.3618652638189107
  0.5482034850351274  0.4183314063915065  0.8619435941765147
  0.6852616424968345  0.4259429180679464  0.8710868679318753
  0.6277572493788102  0.4649545859634389  0.7997492247860759
  0.7006166749456882  0.4476463819434233  0.7495410342912562
  0.7740665965301644  0.3404935242886881  0.9212346799133213
  0.8539312273352361  0.4019902055401217  0.8892323149630507
  0.2799471098805530  0.5606823645369761  0.6968934166447015
  0.1477849306291620  0.5917102049884099  0.7048822039310231
  0.5147194694232228  0.3779102326812048  0.5349012991241334
  0.4247035388980177  0.3512042169563576  0.4927641160345404
  0.4682238471326067  0.8836930223334227  0.3349854146857049
  0.5051887133300430  0.9292901907333697  0.3857060098156259
  0.4667468720343413  0.7561893494958646  0.5879436603546131
  0.5581275770206312  0.8215160854205671  0.6015899870754423
  -0.0322498526268854  0.1741230663400357  0.3397120449333573
  -0.1227094021355834  0.2098157578283261  0.3773339079656655
  0.4939149543661048  0.6020133368569989  0.4812985816457748
  0.4658971966560423  0.4970800277378531  0.4932206803591493
  -0.1081773561166772  0.3574517710960837  0.7380128481509268
  -0.1079401195675702  0.4157424482149202  0.6891736940118824
  0.8437159568186982  0.6004292141957043  0.7618775050833768
  -0.0910544185135376  0.5054451344931892  0.7630922123655015
  -0.3384224666383046  0.0233846976725748  0.3794871896321894
  -0.4109423598796876  0.0892034347063368  0.3451100000363213
  0.4878831150561816  0.2730040080781562  0.8803560975279888
  0.4579731777431503  0.3371563924920631  0.9220100003349293
  0.1830885952604669  0.3815983147057700  0.8944888995688555
  0.3087331219499031  0.3227969779984212  0.8797567493745829
  0.4985542974964209  0.9644478487008211  0.8641248223619008
  0.5696683422316089  0.9241371819769326  0.9131078085936855
  -0.0237610903650905  0.8663879076157943  0.4685608037201651
  -0.0970516613202137  0.9466310416285059  0.4479202875817645
  0.0083008470613008  0.6148718708068944  0.3368895148061066
  0.1023586438641342  0.6122017928449250  0.3808572771254280
  0.2370886654143419  0.6042627893894041  0.4368352477808275
  0.2911132706039265  0.5950819635384653  0.4873802253133223
  0.9143981652524702  0.1906915478576353  0.7027481877142853
  0.8673260276440335  0.2288507823218473  0.6486465554800276
  0.8878791444368185  0.5983163906693787  0.8861758261516642
  -0.0941477205472455  0.5436894356121090  0.8380610387129657
  0.4869538933986584  0.5074781396775161  0.6838419358232560
  0.4068514503991354  0.5253055483116786  0.6392301826561047
  0.3723078689329980  0.8832031153889800  0.5744066379915456
  0.3636613115493158  0.9775733941119550  0.5509047773666046
  0.1391933285084579  0.7329722739135843  0.6426040543203264
  0.0750569673469978  0.6878104951359898  0.5945608507621108
  0.4836214942671629  0.2492813652546725  0.6835528158937242
  0.5565167337540285  0.1630006264584187  0.6568302413119119
  0.7891585010037292  0.1228319968405168  0.5418634302839630
  0.9093080516318630  0.1407524466113091  0.5185486772961250
  0.1210082877352897  0.0970584763672660  0.3633086302038980
  0.2472235063611408  1.0682614574288498  0.3490063725761577
  0.7668172503505353  0.7519695657323651  0.7538746078681465
  0.6846857685179190  0.6648038384013996  0.7308622090950080
  0.8425846532898306  0.6385809188520943  0.6695656588010512
  0.8559457388721776  0.5741711686316721  0.6226521899094586
  0.1837444433061359  0.4602267038537833  0.4834570975191186
  0.2122334710690284  0.3496877140147632  0.4889169836984829
  0.6521239822854603  0.8683417116333123  0.6785804920199597
  0.7043741289848713  0.7712384928808589  0.6704069550289379
  0.4745072152199921  0.6550698417781301  0.7355251426671543
  0.5508959900332828  0.5547204307932975  0.7464736664737632
  0.5858807915191436  0.0154619589126870  0.5385609288110724
  0.5057266260357738  0.0525742575314098  0.4940980290193578
  0.0239152253888495  1.0673235674085526  0.5655205509508910
  -0.0072571805804966  0.9955679334476020  0.5163014557125448
  0.5891990224300298  0.1382653520691864  0.4358343794354625
  0.4991026575776862  0.2098534974391780  0.4444379211946551
  0.3021084772022422  0.7153201551922821  0.8761643336863632
  0.1607131781891626  0.7246379062767452  0.9013107013900371
  0.7187481346145173  1.0210914712303401  0.8666586064083447
  0.7697055848527399  1.0648351271290382  0.9134655476248570
  0.1656976179913808  0.6727055731456056  0.8219483358137371
  0.0658597137285691  0.6538268836222199  0.7823063679666705
  0.7975998898557776  -0.0159086917544672  0.5689024113747760
  0.7129906991096941  0.0399015761446371  0.6022911449268992
  0.1638881462479582  0.3486307507371091  0.6353176041259536
  0.1514378560677522  0.4357252072209662  0.6755002167111956
  0.4138599195017410  0.7309658484906578  0.7880934920726603
  0.2910220672812220  0.6993694601230072  0.7624839054228788
  0.3905034091878399  0.2875398029800880  0.7591724627116364
  0.5089973415447555  0.3467478379186436  0.7567894791379953
  0.4738838509867140  0.7105973833528474  0.8655283115060198
  0.4661078495232728  0.8252887088766788  0.8743516667433130
  0.1703092472060307  0.2284254888269068  0.9055084600928970
  0.0446843159389547  0.1731805396749464  0.9030479940367374
  0.8840423021127313  0.3990082039773369  0.6006313324750967
  0.0039035015017433  0.4420522688747322  0.6245130558082124
  -0.0430982667881116  0.2354176555524141  0.7953350328315549
  0.0604638525904583  0.2737005817739077  0.7552467447635384
  -0.0802560113431127  0.4716025208409033  0.5484058949374507
  0.0004915745980287  0.4533253428325086  0.4993215718173943
  0.2190027071635913  0.3974062473668287  0.7590175174358111
  0.1966297094011478  0.3281737711076708  0.8039129302206756
  0.8135244356223404  0.2526134344390980  0.5749825209780502
  0.7221231940324709  0.3225786601822537  0.5981781585962254
  0.1783578440590615  0.2100740936846969  0.6147448586244760
  0.3096203835236823  0.2440902444736919  0.6310744828036069
  -0.1203546681708965  0.5609622416594070  0.4841668782639267
  -0.0934268114767877  0.6341392868402932  0.4403491965371276
  0.3682062214340382  0.6125958381732193  0.5597746047045059
  0.2808950764040744  0.6391016877050135  0.6036173346765261
  0.3779756807069174  0.9549383523410991  0.7730003921323526
  0.3676842672088211  0.8573900839330113  0.7414936039597538
  -0.0180459241930023  0.8996054017269883  0.9034566340283525
  0.0528038070914089  0.8971148265886917  0.8495505385709107
  0.2940258817285474  0.9760008571496056  0.6307943244808347
  0.3093808468349689  0.9759548822798527  0.6926937779617000
  0.7600064696157471  0.8331848471153849  0.8254008374392404
  0.8518640950669568  0.8695242551979712  0.7892995452893363
  0.2900289344119218  0.2139915623869721  0.4992500296775928
  0.2710562974499278  0.2702444898825828  0.5502072765138395
  -0.0085998771847142  0.7990545016939424  0.3363920980126164
  -0.0095572653145453  0.7295173916037849  0.3792543145227101
  0.5351467698833214  0.4096613972597469  0.6181403864775322
  0.5359991478429891  0.2989637488394104  0.6129479865866703
  0.2250673245689100  0.8633424052528766  0.5018261390064265
  0.2045104949952027  0.7571934477996234  0.4836586541008181
  0.8761605035349629  0.9664173835622883  0.3585658135767745
  -0.1100765163565106  1.0566897931848875  0.3879624830710481
  0.6670214474157768  1.0347330506203920  0.6923601772848709
  0.7612723894771016  0.1044896018091447  0.6664931799126814
  0.1982526357237452  0.0622407625865729  0.9099838908778466
  0.1809655782883153  0.9528234625541326  0.9096160361259331
  0.4856743023207830  0.1449787773703301  0.9106972839922173
  0.6020592323288269  0.1538007543508487  0.8747427573253519
  0.8879188244196999  0.6975878374959977  0.5877363339680296
  -0.0860507886049837  0.7036377598284040  0.5299921924734123
  -0.1676862826306793  0.8756575831667512  0.6208681668550646
  -0.0801047950110026  0.8498918782483025  0.5780884890066647
  0.6219961561185176  0.6981640232846518  0.4207514986066503
  0.7080975936478826  0.6333050706893574  0.4537835439627859
  -0.0701856553162366  0.4699493223412405  0.4051897852344224
  0.8467383942957400  0.4335003558548321  0.3625523315687490
  0.8742842022665438  0.1425191566821079  0.8592812408113947
  -0.1077737554680874  0.2480000936426085  0.8695394398112556
  0.7331632133341895  0.2682431399868951  0.3392029671779773
  0.7051378100235436  0.1786424818676514  0.3733018225878929
  0.1371921160206357  0.0649159298092817  0.6461156498538118
  0.0205633938480099  0.1285506056727750  0.6487156085130900
  0.1528224066152469  -0.1015782303909888  0.6652337183801030
  0.0224112180886476  0.8582630774341653  0.6527548649474036
  0.7310796849857308  0.7209556749522894  0.8832809388982727
  0.8014919760133639  0.7783846020827987  0.9148923287036527
  0.4096815414193078  0.4111677960419124  0.3520751806020332
  0.6259128444199797  0.4399773626485595  0.3614421066272620
  0.7049917406751434  0.6074120011345736  0.3514023346506082
  0.3306655976067399  0.6911228457950619  0.3403839706828173
  0.5608951267078079  0.7378869763264932  0.3471560917261141
  0.4045548602994176  0.6902180144606895  0.4004564485933915
  0.4337609465764737  0.4845209393799084  0.3419280019367025
  0.5666615201076388  0.5007978841025043  0.3453984142329951
  0.3538274260311082  0.5560395596457262  0.3603659534565206
  0.6107381483187939  0.5935777973865080  0.3435416825873391
  0.4003182830382354  0.6566211029679543  0.3640934790248181
  0.5241178301686832  0.6677375407827034  0.3394944439054310
  0.7269097041730086  0.8044511918640520  0.3903759794597635
  0.2626968151870020  0.0854338252541872  0.4948941278327847
  0.6391782328472244  0.9428861073578718  0.7307765421660927
  0.5683292897323678  0.6339497002424228  0.8845435367961757
  0.3797208399591199  1.0081933010731718  0.8340658120623882
  0.1363180232261226  0.5066561869737758  0.9178202901572232
  0.0322146121987981  0.8654512017839190  0.7793358081977663
  0.3464309653979081  0.2512003051789011  0.3927866405982288
  0.6193423582781091  0.4591260395093415  0.8544707291246644
  0.6210303590237019  0.4446584089158940  0.7649849243629017
  0.8064795800088699  0.3469624119686995  0.8854043036394671
  0.2046110678180775  0.5424641986103695  0.7137698902573985
  0.4991535946400977  0.3892520151686358  0.4993782806773912
  0.4523451341261878  0.8854469766595856  0.3715889361486788
  0.4990148308102956  0.8158001048681817  0.5773218162317330
  -0.0372612280864642  0.1777985316751257  0.3771083617287021
  0.4338841356532842  0.5610668209756828  0.4970048676729060
  -0.1481950500504110  0.4157683685602127  0.7220872819822616
  -0.0917147910804357  0.5662975941458838  0.7782952951054496
  -0.3970941933424951  0.0751497061061309  0.3798128809518120
  0.4485095415565434  0.3378999434643826  0.8840011903182188
  0.2154840405226939  0.3275422886207726  0.8749931782095907
  0.5742356222469225  0.9348242647457511  0.8765534117853871
  -0.0734043758991556  0.9152317532765163  0.4776296901251808
  0.0119833840773604  0.6117559066803875  0.3742923095536967
  0.2135174150954016  0.6155883544854815  0.4716398246701379
  0.8943270715960213  0.1754387686840868  0.6688973834859683
  -0.0784145010546676  0.5398961705174540  0.8760130950390306
  0.4375277824688475  0.4789142245413177  0.6596730399565223
  0.3137915321698691  0.9319413222216061  0.5684473615483795
  0.1347547295011721  0.6739525740556440  0.6227966962606795
  0.4921267161762844  0.2144132487988117  0.6529649135018831
  0.8339921805379797  0.1763744258938370  0.5248081975361789
  0.1994480537531180  0.0857223736949687  0.3780989275185270
  0.7651943292448590  0.6977545457882999  0.7306516570587188
  0.8381439556025905  0.6397683416520403  0.6336157617150130
  0.1475183023881508  0.4001936681720267  0.4794352372275248
  0.6655561447324380  0.8252014837596018  0.6519880480225119
  0.5400932460967266  0.6129142833140274  0.7247283177040226
  0.5108386201081980  0.0070290844487786  0.5210960515486803
  0.0237166364308826  1.0566608383463598  0.5284660323402279
  0.5675259828262339  0.1794259512498706  0.4634866331284515
  0.2198795270833297  0.6830652676776138  0.8848429299788041
  0.7684373805385833  1.0734685189821265  0.8744545010864629
  0.1419700870614887  0.6830810641787933  0.7874843755399455
  0.7333903485815478  0.0307831058308663  0.5660840480870900
  0.1065660708083672  0.3938191068068483  0.6517364841489193
  0.3677202618198890  0.7274060023889933  0.7560643212492829
  0.4712922475044926  0.2866488057753305  0.7476479855657890
  0.4208811465623397  0.7674087078211750  0.8621798304501715
  0.1236392508057518  0.1743184642270306  0.9160502963417947
  0.9177508043258411  0.4604767591792543  0.6118333877442230
  -0.0312106047611091  0.2618105144289085  0.7610276011246235
  -0.0838173002383028  0.4613431727036773  0.5114487730925160
  0.2073777291509923  0.3290835545481164  0.7673570634499982
  0.8045940286798416  0.2972180471193630  0.6018395072454086
  0.2380745380144011  0.2672659394652431  0.6135554120638747
  -0.1452707858558198  0.6247702137268449  0.4704434023814719
  0.3671327988247025  0.6347769306055596  0.5947599458265980
  0.3974567832067741  0.9249295610716499  0.7386998136556878
  0.0567443027266554  0.9076309570043195  0.8854922779716097
  0.2533984222727645  0.9933102811067609  0.6640161941225711
  0.7712020855260905  0.8489296383084962  0.7902570915318458
  0.2881150864218247  0.2778360874283927  0.5132405792371554
  -0.0070452957990715  0.8003372988135327  0.3732648328393668
  0.5730549741140476  0.3585184627207805  0.5988579245704712
  0.1796073549015514  0.8229551914929391  0.4789463685561480
  0.8490541576436601  0.9942716228825699  0.3891894615948001
  0.6765282269541102  0.0754954660003168  0.6616981543695717
  0.2425396868971939  1.0003876558726703  0.9175364997719446
  0.5134731487955544  0.1570861901857884  0.8772251582980846
  -0.0705393082613148  0.7365554566590563  0.5610585509887033
  -0.1059398461075232  0.9047825102867585  0.6006756326085806
  0.6284587959232396  0.6586568438586470  0.4526177587484226
  0.8682300985340056  0.4247745148760916  0.3994379576532465
  -0.0660022952633799  0.1933801162648235  0.8571259491883148
  0.7366975675901746  0.2391165734059881  0.3739024686245931
  0.0871817194258362  0.1109202940370650  0.6266121832937195
  0.0913466379059257  -0.1501555593918492  0.6773814470245191
  0.7975534073501870  0.7632185697537038  0.8802073163712083
  0.2467557957982511  0.5319775586397892  0.3758465377220661
  0.6839499619571473  0.8212505035196265  0.4935996770069599
  0.7492953122248447  0.3178868662716304  0.4683647467391438
  0.1160179881143101  0.3781576130190291  0.3816912838629544
  0.1909936267610762  -0.1180423389485620  0.3741137197286656
