combine
1.000
11.0985002518  0.0000000000000000  0.0000000000000000
0.0000000000000000  14.4173002243  0.0000000000000000
0.0000000000000000  0.0000000000000000  26.7964000702
Pt  H  C  O  K  
96  166  6  81  4  
Direct
  0.0000000000000000  0.0000000000000000  0.0018699899937576
  0.1249999521128992  0.1666699702868031  0.0018699899937576
  0.2499999943280624  0.0000000000000000  0.0018699899937576
  0.3750000365432257  0.1666699702868031  0.0018699899937576
  0.4999999886561249  0.0000000000000000  0.0018699899937576
  0.6250000308712881  0.1666699702868031  0.0018699899937576
  0.7499999829841874  0.0000000000000000  0.0018699899937576
  0.8750000251993506  0.1666699702868031  0.0018699899937576
  0.0000000000000000  0.3333300219343480  0.0018699899937576
  0.1249999521128992  0.4999999922211510  0.0018699899937576
  0.2499999943280624  0.3333300219343480  0.0018699899937576
  0.3750000365432257  0.4999999922211510  0.0018699899937576
  0.4999999886561249  0.3333300219343480  0.0018699899937576
  0.6250000308712881  0.4999999922211510  0.0018699899937576
  0.7499999829841874  0.3333300219343480  0.0018699899937576
  0.8750000251993506  0.4999999922211510  0.0018699899937576
  0.0000000000000000  0.6666699625079541  0.0018699899937576
  0.1249999521128992  0.8333300141554991  0.0018699899937576
  0.2499999943280624  0.6666699625079541  0.0018699899937576
  0.3750000365432257  0.8333300141554991  0.0018699899937576
  0.4999999886561249  0.6666699625079541  0.0018699899937576
  0.6250000308712881  0.8333300141554991  0.0018699899937576
  0.7499999829841874  0.6666699625079541  0.0018699899937576
  0.8750000251993506  0.8333300141554991  0.0018699899937576
  0.0000000000000000  0.2222199683821562  0.0864100026098289
  0.1249999521128992  0.0555599860957249  0.0864100026098289
  0.2499999943280624  0.2222199683821562  0.0864100026098289
  0.3750000365432257  0.0555599860957249  0.0864100026098289
  0.4999999886561249  0.2222199683821562  0.0864100026098289
  0.6250000308712881  0.0555599860957249  0.0864100026098289
  0.7499999829841874  0.2222199683821562  0.0864100026098289
  0.8750000251993506  0.0555599860957249  0.0864100026098289
  0.0000000000000000  0.5555599783168760  0.0864100026098289
  0.1249999521128992  0.3888900080300730  0.0864100026098289
  0.2499999943280624  0.5555599783168760  0.0864100026098289
  0.3750000365432257  0.3888900080300730  0.0864100026098289
  0.4999999886561249  0.5555599783168760  0.0864100026098289
  0.6250000308712881  0.3888900080300730  0.0864100026098289
  0.7499999829841874  0.5555599783168760  0.0864100026098289
  0.8750000251993506  0.3888900080300730  0.0864100026098289
  0.0000000000000000  0.8888900002512240  0.0864100026098289
  0.1249999521128992  0.7222199606033073  0.0864100026098289
  0.2499999943280624  0.8888900002512240  0.0864100026098289
  0.3750000365432257  0.7222199606033073  0.0864100026098289
  0.4999999886561249  0.8888900002512240  0.0864100026098289
  0.6250000308712881  0.7222199606033073  0.0864100026098289
  0.7499999829841874  0.8888900002512240  0.0864100026098289
  0.8750000251993506  0.7222199606033073  0.0864100026098289
  0.2432930626516022  0.4504959400133007  0.1704131223946873
  0.4936786091806754  0.4514063300999189  0.1761418411777270
  0.1187425747624111  0.6140632787321902  0.1714377975535918
  0.8699435616568194  0.2817766403069576  0.1754868549984633
  -0.0135448183528778  0.4506617690286368  0.1701641902178828
  0.0021846822138034  0.1149192839591050  0.1717966169351061
  0.1297449436888069  0.9536238008297102  0.1722277290684425
  0.3735272382615526  0.9510906654762239  0.1705786287122666
  0.8668626321596603  0.6208571377332610  0.1727880461618083
  0.4992562735403226  0.1121244948881188  0.1714422171659162
  0.2552189109011018  0.1173865620726623  0.1707780982076464
  0.2488796638583683  0.7872376601112964  0.1735936615483320
  0.7493444287890322  0.1178846405539508  0.1757281509107150
  0.6173630283324764  0.2798878366421700  0.1708899435559824
  0.3714873244726307  0.6160889246607377  0.1743571814706500
  0.0032008327065847  0.7828977395140586  0.1728167764501299
  0.7490520100273643  0.7833204005535873  0.1735715053856219
  0.6223256709553899  0.9512950171408328  0.1712551636368276
  0.8729616951469338  0.9507205836011856  0.1700489617360005
  0.7462981990883555  0.4502159547499575  0.1756078049839655
  0.3714155436570317  0.2841815748689472  0.1698868802441351
  0.1207721460278032  0.2798897665874141  0.1702301567803826
  0.5008286194162592  0.7817640717020745  0.1734666904294098
  0.6222554831297985  0.6122982057154608  0.1716797283085819
  0.3724538422053540  0.5162748968114377  0.2650054517993692
  0.1167158947435183  0.5195428213442562  0.2618351382954118
  0.0011517488768743  0.0145188152458109  0.2577823151320208
  0.8761975424763219  0.1819916162165787  0.2631047906110539
  0.7534749093819000  0.3491132772775687  0.2599972194902373
  0.0081043089389859  0.6822617667780158  0.2633817495712335
  0.6322456979502215  0.8486568572927154  0.2589898715021015
  0.2548250056615816  0.6773710407680825  0.2563969668911097
  0.7543225056955077  0.6825221279858424  0.2590404108318790
  1.0028847133552850  0.3501960055316208  0.2573749849469434
  0.1278569841695374  0.8506166220378776  0.2633797279153447
  0.6332597492674861  0.1846555628295005  0.2613640002295923
  0.2565691815917358  0.0181778893220436  0.2607135149608870
  0.3712994630902189  0.1850003014020956  0.2594441415334530
  0.8687800113746175  0.5216189226762901  0.2640192242378024
  0.4989607646043770  0.0222815593004409  0.2592393311602080
  0.3797917487830281  0.8501579775623428  0.2600210612860878
  0.4912207467505172  0.3459711120389171  0.2573213630426490
  0.1256157918700674  0.1780339765675251  0.2599841663973187
  0.7490863467657843  0.0144331381439415  0.2631138651098434
  0.8735156245482510  0.8502899872222924  0.2590926340296344
  0.2416416289187402  0.3521102686093559  0.2596176074500621
  0.6196637154902622  0.5143188337648718  0.2655688228738587
  0.5087409420100942  0.6806376298983152  0.2610035106722378
  0.7465373743768877  0.7930325557020245  0.3440277555063088
  0.8610051940801812  0.7934236932320938  0.3728954611001007
  0.2119031714954977  1.0820109807942497  0.4369818098783373
  0.1670289969943775  0.0696372605536656  0.4941528795028611
  0.6901869980277436  0.8665757048356536  0.7357176505109874
  0.5621682965126840  0.8764404652268042  0.7147317821060228
  0.6386287339183929  0.5994561770957100  0.8510145517591459
  0.6413019541577841  0.6093629363070681  0.9108145159335143
  0.3866471254441819  0.0357324911034106  0.7896358933240122
  0.3264660459427715  0.9805398921895849  0.8380697793758677
  0.2025509780238468  0.5553499631508676  0.9107539214657593
  0.0635290042351126  0.5334656615485321  0.9083894857343172
  0.0456117432369206  0.8091834495363315  0.7724838089807451
  -0.0016371603268697  0.8851178487974910  0.7333204676680787
  0.2658831214894472  0.1641297804988237  0.3796602042008573
  0.3522794966523424  0.2273552330675107  0.3487802905731973
  0.4871700041654811  0.3787850981347758  0.8387913193159100
  0.6280905273006987  0.3976023300006102  0.8369416592544781
  0.5766210294730660  0.2685956152160254  0.7808256786615380
  0.6593587098683134  0.2002010139342951  0.7505279752770124
  0.7355840541316334  0.3884523362744856  0.9207762758378553
  0.7439589977178108  0.4713603011086600  0.8810800998174447
  0.4489906142401373  0.5348841739733153  0.6622634537665174
  0.3273130543931678  0.5908944904428961  0.6527129680397199
  0.5400162164097776  0.3462113184538576  0.5272029857402618
  0.5306709774092938  0.2913041247917769  0.4760958037750621
  0.5014913693313937  0.8813113988071174  0.3379786034942717
  0.5425858937943751  0.9550323460000308  0.3750147153003376
  0.5190794861013457  0.7585303274026098  0.5454364945481616
  0.5801109484910629  0.8286811902593973  0.5767759301327913
  -0.0402447716417864  0.2139083178348487  0.3382998069312054
  -0.1544125771517694  0.2367472898391226  0.3719316859425295
  0.5709871933167027  0.5652825628728764  0.4672217420586733
  0.5046451638266745  0.4779754651626936  0.4823595263407906
  -0.0597072364162470  0.3416155418681469  0.7499212698330943
  0.0549714114752623  0.3833328187606868  0.7281850200057250
  0.8545305075396871  0.5960666537078545  0.7600972119591130
  -0.0718862686037787  0.4952326569204577  0.7577631191990353
  -0.2955427433961649  0.0471760991876704  0.3562828994226441
  -0.4119038273985328  0.0595971388493242  0.3314619159562991
  0.4051732079269618  0.2829276410867035  0.8928113545634727
  0.3850473175064275  0.3810725272086612  0.9180596940802573
  0.0931635508349253  0.3603605880831445  0.8777226710410304
  0.2354272150668493  0.3341001785744439  0.8808925707356713
  0.5139186624854963  0.9667504542430186  0.8433540191591612
  0.5411789655116580  0.9708194648821342  0.8992302056273992
  -0.0053973037744703  0.8976807717429895  0.4782077108951135
  -0.0812849306512100  0.9596973928016949  0.4394652061041611
  0.0125721837756746  0.6241008649132762  0.3469436395092086
  0.1264879290940523  0.5928327021583532  0.3810541498914033
  0.2505764700819790  0.6344215181899006  0.4395659788047077
  0.2901900753912816  0.6671882104034518  0.4914961313944026
  0.8475775093282860  0.1838571555465198  0.7214620573567108
  0.8052609318678468  0.2131531329645462  0.6668022325047575
  0.8716142519284166  0.6016221511903166  0.8953410354804024
  -0.0673962655430572  0.5701207620235351  0.8410097738487674
  0.6382299397300266  0.5708266081834734  0.6220396759353053
  0.5079546138394403  0.6022988822736824  0.5986754105242863
  0.3965024826923165  0.8679420487761647  0.5463450041030355
  0.3378182154378856  0.9540221984430387  0.5217265120342582
  0.2405302206635573  0.7506914521456797  0.6337319879839088
  0.1370640928312170  0.6922801196494190  0.6089071604862861
  0.3930516537396579  0.0814093440338957  0.6852360632359730
  0.4754744676195458  0.0673283645618977  0.6426577997374805
  0.7574306800900080  0.1415026992058808  0.5336979690530967
  0.8913641621980001  0.1680671534547063  0.5292721357773841
  0.0910448852074513  0.0299729616833294  0.3704604741940587
  0.2161115054721920  1.0338666634462561  0.3419643842006426
  0.7252981067594663  0.6973589692232515  0.7531148115019681
  0.6644724568442434  0.5991516198671244  0.7474854213859520
  0.7646545654692058  0.6260932306581182  0.6749832948946938
  0.8111123531794304  0.5374655212034489  0.6415260049508469
  0.2711073415808597  0.4263635575431359  0.4713670865642411
  0.2355077179347801  0.3350599973189184  0.5034259865675798
  0.7045558533849471  0.8256705860599479  0.6507943050004568
  0.7310907059162373  0.7394751105849037  0.6185380349703180
  0.4832852380059267  0.6148404936147043  0.7878740973037884
  0.5481750258926457  0.5162732353977453  0.7940555153773381
  0.5709885292089101  0.0084252305709267  0.5205344389902554
  0.5072004978859228  0.0807573225559663  0.4821746544853540
  0.0336593024755226  1.0817388183270087  0.5710869024499448
  -0.0199653888338708  1.0463392272759886  0.5194550815383504
  0.5548251116272502  0.1272061602219319  0.4031733977958691
  0.4456668351922414  0.1990878011378418  0.4202202011053925
  0.2949596835814886  0.7274343253200308  0.8746399096445895
  0.1584981461539998  0.7157537862676386  0.8976814573854234
  0.6877453275060347  1.0543812930231233  0.8678548046072081
  0.7100172709571249  1.0926753944298107  0.9196087501471640
  0.1396655965970359  0.6961403195019682  0.8166058725602793
  0.0662966991310980  0.6381921258802623  0.7756163157906186
  0.7906258167608612  -0.0197479007907546  0.5556398785282382
  0.7046552746288058  0.0241596398202849  0.5930176368754818
  0.2280756279380598  0.3466310046160284  0.6735115901994105
  0.2679423908214719  0.4377236696342991  0.7052298486995591
  0.2759033473106760  0.6712226559026142  0.7743463586392532
  0.3669076856703739  0.6226568404027155  0.7347711318617077
  0.3092620581815393  0.1683603729017755  0.7596807192634240
  0.4513705598815059  0.1589146062061172  0.7593586320958422
  0.4748848997543795  0.7796915966106812  0.9185757570575145
  0.4372917512087162  0.8426948345795362  0.8739192028425785
  0.1165228259277877  0.2236355610508586  0.9007851296877522
  0.0251886095560218  0.1373556993050791  0.8990597332882778
  0.8276091901165027  0.3950290391054487  0.6224462883150076
  -0.0829883926750032  0.4249078744975248  0.6658869498199286
  -0.0739660364982071  0.2199599967582677  0.8046154141009986
  0.0390239983037129  0.1912097459726616  0.7674807544977256
  -0.0295869931026711  0.4475294463609099  0.5500722428454915
  0.0652172487884216  0.4295355517714950  0.5074545592832130
  0.2220411506861322  0.3142630079842139  0.7499966859074439
  0.2090043834998149  0.2897223899492463  0.8067053651635773
  0.8075588912336505  0.2546389407229152  0.5777122157993090
  0.6897476890409994  0.2838150312014239  0.6087997664709534
  0.1943375891666257  0.2113666613506314  0.6297200078702234
  0.3321783401232143  0.2011721671795054  0.6352932946665377
  -0.0409176555117299  0.5502456865626638  0.4956480317059571
  -0.0206818522225805  0.6194234756621084  0.4487875356090786
  0.4257078517193101  0.6128409039445517  0.5337257040622044
  0.3354980794631331  0.6640820276505588  0.5764482040249189
  0.3958349033408813  0.9048962882392516  0.7622117112930370
  0.4030217002134645  0.8040093887871304  0.7486241945166732
  -0.0359298278013127  0.9543337019860134  0.8915484180529213
  0.0196781701711976  0.9579219199252366  0.8380723450637892
  0.2868516047367451  0.9014603607820079  0.6240870228310180
  0.3133430470784539  0.8773846683985642  0.6827637592613180
  0.7600717057182451  0.8013512440371579  0.8214958534068378
  0.8419196984551622  0.8308959425918889  0.7754052175055811
  0.3020722045626182  0.1814257789881738  0.5096285674539891
  0.2926468412048047  0.2278452858090143  0.5609248106955814
  0.0248724332961320  0.8370169413522019  0.3485174065670790
  0.0399121535477875  0.7424943318761850  0.3697005961676575
  0.5050272676068058  0.4136141692429472  0.6059815077943341
  0.4284834008296508  0.3251077730419931  0.5954350637212632
  0.1734590225636814  0.8667374809077139  0.5244472343405757
  0.1225792331877775  0.7790018700914791  0.5023345202503364
  0.9030930934001133  0.9913230911159669  0.3404333635675530
  -0.0989978520405767  1.0867520357515983  0.3715171425012127
  0.6455053378440110  0.9893186479365642  0.6726903286440393
  0.7013648966433589  0.0910589990549872  0.6692586833200743
  0.2715756242570850  0.0677289731439584  0.9041900366514106
  0.1789034345228738  0.9847306521210570  0.8993277563764981
  0.4554078633985043  0.1631576373664793  0.9200388314927854
  0.5546274899711490  0.1838960434652895  0.8831680986924213
  0.9200201072792662  0.6388700340217275  0.6032126050086756
  -0.0218329018247939  0.6640379610853825  0.5519191507499245
  -0.1397599041860122  0.8503665549556977  0.5961729193230680
  -0.0158920542143876  0.8515169537434019  0.5734301703193415
  0.7160864564030661  0.6975934584582264  0.4255125311246667
  0.7752098589000457  0.6456616155853107  0.4725297743476142
  -0.0625657290846465  0.5023551893296061  0.3814227176719307
  0.8672270638673897  0.4355541999892624  0.3505135580411529
  0.8279320111660782  0.2011715633979468  0.8672717899799047
  -0.1512195163421116  0.3047926632125992  0.8613139370264573
  0.6650164496417406  0.2569668544500243  0.3378861181382721
  0.6426335464058091  0.2473987244774310  0.3981018238029456
  0.1736688639068505  0.0644559340058495  0.6295796001964261
  0.0547373354612911  0.0289810485804936  0.6506047833301318
  0.1140032583226544  -0.0940266153933004  0.6687044354262868
  -0.0144944313601209  0.9146874594019408  0.6374955125669051
  0.7714097481514642  0.7705107678257672  0.9082073091215180
  0.6888133570263366  0.8475521427516980  0.8818842697523445
  0.3924295596779958  0.4098392265384685  0.3496446706966214
  0.6224154995428010  0.4427066728306197  0.3613312676342548
  0.7003545967608876  0.6017116061978377  0.3510095481653927
  0.3330179958594466  0.6883985057737729  0.3538977006186048
  0.5722917187004500  0.7315198077254484  0.3523790645744573
  0.4078537320541001  0.6486337566265146  0.4092260434488338
  0.4265357896741261  0.4787603182644504  0.3434091507214655
  0.5603107468859533  0.4934885688451037  0.3441275190824979
  0.3538244751549306  0.5535972025710880  0.3642546888361616
  0.6075249398499994  0.5864242464376160  0.3373707205600967
  0.4093822590275755  0.6452264894311486  0.3682325131678165
  0.5237584578742731  0.6673559310836332  0.3425296093525407
  0.7708616106858626  0.7924055290632394  0.3781565744000466
  0.2378169288388248  0.0782708548579725  0.4742565360648143
  0.6548843763031142  0.8891629077539317  0.7053250556338233
  0.6937040086611100  0.5961593272860705  0.8806987790402794
  0.3907261331274640  0.9768773412765506  0.8126337165086770
  0.1462787823550032  0.5044155030040024  0.9176738158177702
  -0.0163632777113778  0.8603111100297711  0.7671436405318072
  0.3102243862941388  0.2195604751272836  0.3814733421288147
  0.5549075579379444  0.3933345491579602  0.8169368749925747
  0.5971362052746860  0.2036508940246166  0.7765788050739714
  0.7408329431056688  0.4040739157655193  0.8850093319838614
  0.3658212865600036  0.5485159083786758  0.6771660998777052
  0.5559132740839786  0.3532509824145856  0.4899514821060070
  0.4921100737204742  0.8977065045080861  0.3739895310693203
  0.5341676425910337  0.8284565685445396  0.5458353865363390
  -0.0642900091824819  0.2299821000544495  0.3743287261991209
  0.4897693603978983  0.5453995752094273  0.4780578107074211
  -0.0292039610980261  0.3976824885796798  0.7333062155596238
  -0.0744817776226957  0.5598286857685160  0.7737149098343513
  -0.3785724122877385  0.0581690948827223  0.3674920956024710
  0.3828797499653898  0.3501833350387297  0.8841570680476547
  0.1496094633354360  0.3097046418145734  0.8695614866570429
  0.5729071366168386  0.9425224554661562  0.8694137530364957
  -0.0746232424480666  0.9421483696792132  0.4759321874389679
  0.0388249487700030  0.6115340177934093  0.3826997439333074
  0.2434558874080107  0.6869303027905039  0.4637667460719938
  0.7779993062936229  0.1752228543831032  0.6961404115041925
  -0.0533406189456983  0.5887060872807824  0.8762367530522077
  0.5519057816308621  0.5502774395048150  0.6172075310217803
  0.3138470658713617  0.8948523372742900  0.5392510020131279
  0.2234131537815532  0.6863999798880848  0.6197753808083089
  0.3960001648499489  0.0820323735512293  0.6506656106724513
  0.8063359560809663  0.1947358632143845  0.5232172259770025
  0.1761676756805856  0.0434346448542799  0.3758952313785491
  0.7239453024382189  0.6424087382316883  0.7302298640652424
  0.7783135132513995  0.6011144358701028  0.6402095605214614
  0.2038359255641856  0.3894720428402975  0.4837886742412427
  0.7340299808506781  0.8058545426499294  0.6170623079101007
  0.5629751807580168  0.5844530843644214  0.7920533207706205
  0.5064982567611603  0.0127631092740828  0.4940033477825739
  0.0114671190892985  1.1026449339111166  0.5365793051466665
  0.5297286091196410  0.1755163766607948  0.4291102583733807
  0.2204079798262171  0.6863711369637140  0.8768826248355316
  0.7113899067686643  1.1117428338479522  0.8843354804719905
  0.1167513595442634  0.6946197200236380  0.7807209386034464
  0.7148488831915170  0.0189722558484961  0.5547125220686056
  0.2021575721310739  0.3928975715892070  0.6986555273639139
  0.3663158195937898  0.6682304308862210  0.7638238895179785
  0.3747079831822795  0.1236261521415698  0.7524592079785853
  0.4413128615558338  0.7753737743671605  0.8851269251751762
  0.1007585880190104  0.1553142213148801  0.9164365771732826
  0.8870118911610042  0.4454649199491041  0.6334178039189619
  -0.0488728259669165  0.2110973389296794  0.7682564731146122
  -0.0224481521509713  0.4432948532436007  0.5142148243458867
  0.2165990974870791  0.2618205877711945  0.7728157219681874
  0.7818708490899599  0.2913510297108310  0.6104678253177725
  0.2678796312788133  0.2435668603738532  0.6250344565659037
  -0.0589767095958611  0.6174647122139835  0.4834490212066501
  0.4117390356916800  0.6697938216008021  0.5531981018855329
  0.4134328646661805  0.8643703201446691  0.7324016613868058
  0.0273144078859514  0.9808822861345816  0.8715791537301706
  0.2541317713303257  0.8702481784733156  0.6534770331882608
  0.7568864244371760  0.8060878298637401  0.7818419278938475
  0.3115628590033312  0.2443584594751027  0.5261416602142398
  0.0389544758743310  0.8071384350994187  0.3812915304493639
  0.5075463513177302  0.3451209421867737  0.5936670223658617
  0.0941623498031194  0.8348785817827703  0.5175808386001786
  0.9146279485963582  1.0180431895329163  0.3747568680528753
  0.6432661044038018  0.0498643171755761  0.6506944143363008
  0.2659736766615153  1.0000788008283330  0.9093245242855539
  0.4690518907143068  0.1883928155787486  0.8872848880749876
  -0.0110565374344248  0.6758532450393706  0.5880128626465307
  -0.0758086856612491  0.8927141456003702  0.5886554601430187
  0.6943080546265920  0.6535413153233048  0.4548090693888882
  0.8919562608105071  0.4447620926900226  0.3843109900181132
  -0.1027767936316442  0.2486958979779508  0.8619313971127619
  0.6924229866962105  0.2744303073491764  0.3718834561468623
  0.0886190983363257  0.0830240708785765  0.6328143241844588
  0.0292109044505739  -0.0707317946172209  0.6695261490573086
  0.7673688603483823  0.8142498670044845  0.8809562813048345
  0.2522836354169464  0.5433497524450938  0.3862758128287173
  0.6506439697137314  0.8690023911677474  0.4586152627108570
  0.8131312517415462  0.3370900211822400  0.4593386576761963
  0.1286293727630873  0.3397524487104746  0.3688890363632424
  0.2820268383732614  -0.1484438231779911  0.3902541237966354
