combine
1.000
11.0985002518  0.0000000000000000  0.0000000000000000
0.0000000000000000  14.4173002243  0.0000000000000000
0.0000000000000000  0.0000000000000000  26.7964000702
Pt  H  C  O  
96  170  6  81  
Direct
  0.0000000000000000  0.0000000000000000  0.0018699899937576
  0.1249999521128992  0.1666699702868031  0.0018699899937576
  0.2499999943280624  0.0000000000000000  0.0018699899937576
  0.3749999464409617  0.1666699702868031  0.0018699899937576
  0.4999999886561249  0.0000000000000000  0.0018699899937576
  0.6250000308712881  0.1666699702868031  0.0018699899937576
  0.7499999829841874  0.0000000000000000  0.0018699899937576
  0.8749999350970866  0.1666699702868031  0.0018699899937576
  0.0000000000000000  0.3333300219343480  0.0018699899937576
  0.1249999521128992  0.4999999922211510  0.0018699899937576
  0.2499999943280624  0.3333300219343480  0.0018699899937576
  0.3749999464409617  0.4999999922211510  0.0018699899937576
  0.4999999886561249  0.3333300219343480  0.0018699899937576
  0.6250000308712881  0.4999999922211510  0.0018699899937576
  0.7499999829841874  0.3333300219343480  0.0018699899937576
  0.8749999350970866  0.4999999922211510  0.0018699899937576
  0.0000000000000000  0.6666699625079541  0.0018699899937576
  0.1249999521128992  0.8333300141554991  0.0018699899937576
  0.2499999943280624  0.6666699625079541  0.0018699899937576
  0.3749999464409617  0.8333300141554991  0.0018699899937576
  0.4999999886561249  0.6666699625079541  0.0018699899937576
  0.6250000308712881  0.8333300141554991  0.0018699899937576
  0.7499999829841874  0.6666699625079541  0.0018699899937576
  0.8749999350970866  0.8333300141554991  0.0018699899937576
  0.0000000000000000  0.2222199683821562  0.0864100026098289
  0.1249999521128992  0.0555599860957249  0.0864100026098289
  0.2499999943280624  0.2222199683821562  0.0864100026098289
  0.3749999464409617  0.0555599860957249  0.0864100026098289
  0.4999999886561249  0.2222199683821562  0.0864100026098289
  0.6250000308712881  0.0555599860957249  0.0864100026098289
  0.7499999829841874  0.2222199683821562  0.0864100026098289
  0.8749999350970866  0.0555599860957249  0.0864100026098289
  0.0000000000000000  0.5555599783168760  0.0864100026098289
  0.1249999521128992  0.3888900080300730  0.0864100026098289
  0.2499999943280624  0.5555599783168760  0.0864100026098289
  0.3749999464409617  0.3888900080300730  0.0864100026098289
  0.4999999886561249  0.5555599783168760  0.0864100026098289
  0.6250000308712881  0.3888900080300730  0.0864100026098289
  0.7499999829841874  0.5555599783168760  0.0864100026098289
  0.8749999350970866  0.3888900080300730  0.0864100026098289
  0.0000000000000000  0.8888900002512240  0.0864100026098289
  0.1249999521128992  0.7222199606033073  0.0864100026098289
  0.2499999943280624  0.8888900002512240  0.0864100026098289
  0.3749999464409617  0.7222199606033073  0.0864100026098289
  0.4999999886561249  0.8888900002512240  0.0864100026098289
  0.6250000308712881  0.7222199606033073  0.0864100026098289
  0.7499999829841874  0.8888900002512240  0.0864100026098289
  0.8749999350970866  0.7222199606033073  0.0864100026098289
  0.2559613373112524  0.4555101481296133  0.1763536139190330
  0.5014592254478143  0.4476125580795643  0.1684000220618560
  0.1165416021403635  0.6205228936705705  0.1692515547580474
  0.8712421918296359  0.2851982033896807  0.1675217497514581
  -0.0023136627848286  0.4476444508745292  0.1710295490026170
  0.0050780834005801  0.1195215311390705  0.1703890159438839
  0.1269406816629577  0.9481546420431644  0.1743270880066814
  0.3759570187533470  0.9444135027063355  0.1701062455986081
  0.8730935483853713  0.6223315023625119  0.1699810235094017
  0.5037264673930418  0.1162803401828581  0.1749186183412963
  0.2533921375137054  0.1154200000978889  0.1742524135692660
  0.2475732347219047  0.7802100214533160  0.1713709796827095
  0.7517380388712314  0.1160199036280535  0.1701815172953552
  0.6197066180076473  0.2797125920567974  0.1703407812968189
  0.3713315460286269  0.6095626336675454  0.1754474780598732
  -0.0051886759826545  0.7878024979639668  0.1736690955803179
  0.7454899222674808  0.7817616032995687  0.1672058835538411
  0.6185796217634500  0.9522187985557160  0.1706508285934048
  0.8721876002687896  0.9469289997158848  0.1726979919980520
  0.7518907483059791  0.4534195969146778  0.1722290544778224
  0.3669091466065033  0.2819897946182496  0.1723005297168464
  0.1171776215429720  0.2864077055453345  0.1733325548145293
  0.4911583553386787  0.7774921246425139  0.1697644802541585
  0.6199392039464169  0.6164619207984569  0.1721794772213059
  0.3534811210608148  0.5146351509552646  0.2686629990797218
  0.1048312725416485  0.5177524560748631  0.2542987250917373
  -0.0104592489315098  0.0259783027593979  0.2606036999263192
  0.8655475012979356  0.1837723820604312  0.2554859035491667
  0.7369446073286794  0.3525168078024651  0.2573269237112317
  -0.0104436715475320  0.6776150973698912  0.2596494016424822
  0.6080889081932884  0.8528013579530602  0.2522256845170903
  0.2358135466254132  0.6779939014119126  0.2586300430298163
  0.7402277434167369  0.6806177498448003  0.2597566605426506
  -0.0075269698161652  0.3553154443344278  0.2610470498452963
  0.1124948164232829  0.8475679917106879  0.2580200664524709
  0.6226256005066336  0.1817722296635631  0.2596687254993676
  0.2316684534275698  0.0186675670349417  0.2619158666057196
  0.3588189922916951  0.1750374538394220  0.2598501657259377
  0.8631322291718074  0.5164806182401280  0.2562314464223758
  0.4848298591268947  0.0142349554914651  0.2618721461657751
  0.3611400815303805  0.8504563458999009  0.2598888062596396
  0.4830743030735586  0.3537406121573374  0.2537887208051839
  0.1106359079733188  0.1811437877320614  0.2632358226784510
  0.7405898611451524  0.0166333480241890  0.2579142490519032
  0.8628996537029208  0.8567258866040371  0.2571127471656896
  0.2362674960497224  0.3454190730804313  0.2631449052868007
  0.6102652959530745  0.5182633093265411  0.2571501161293331
  0.4890547727581211  0.6829502905338898  0.2594644423648548
  0.6250162544326627  0.7550017935641971  0.3651807938105234
  0.7312908761779481  0.6850851601503332  0.3836232095232812
  0.1112340374186844  0.9690415856744309  0.4007578260686809
  0.0681898107158450  0.0069873812456376  0.4492518205603186
  0.8057762749385533  0.8162365775088356  0.7652404563180173
  0.6820644748259823  0.8655791523968147  0.7650106552147398
  0.6803821953759304  0.5569057109782032  0.8690765789505615
  0.6995783178038635  0.6133211106956278  0.9165685828192177
  0.4064309627481806  0.0493853696824552  0.7688888742377334
  0.2886316019031908  0.9985985024598473  0.7874158456704411
  0.1644707397653978  0.5544274833180911  0.9131037697750487
  0.0447803296593515  0.4941055446700926  0.9088586981795360
  0.1704501923035222  0.7021073584108897  0.7856413421373012
  0.1345668052093597  0.7950158546730625  0.7574701467034972
  0.5287678209358257  0.1637343930052351  0.3454445966752918
  0.4404985368547523  0.1469547984114944  0.3881031658862816
  0.7028375019530132  0.2446731121236168  0.8655094472855024
  0.8416078573305529  0.2685534869541074  0.8583364158224531
  0.7327869567765233  0.2314434968882678  0.7891567535714199
  0.7833604268099152  0.1736325944285136  0.7389522848862367
  0.9318481107681800  0.1647772675563704  0.8784181552796287
  0.9795807992018338  0.2373384068490630  0.9186916859245212
  0.6005011891511285  0.5717171200338379  0.6635057269977271
  0.4593015034687464  0.5789978712817780  0.6459183898268621
  0.5739246721436021  0.3958755070023599  0.5514085217861773
  0.6181185344377846  0.3583421703594883  0.4961174814517081
  0.4871725160183772  0.8501954009489413  0.3483525430112123
  0.5556216292106567  0.8924591926727892  0.4002088654821296
  0.5029025131476458  0.7901798622531720  0.5783199159253459
  0.5818852923531362  0.8486234964559071  0.6174980870210787
  0.2249926930257999  0.2020996063180386  0.3512452812072734
  0.2083068837634209  0.1153511747779911  0.3890311469111528
  0.7414789995671115  0.5979576515837292  0.5014241955225337
  0.6499019615582904  0.5327094096962177  0.5222690866921195
  0.0888968833009654  0.2533271808229497  0.7409088845325564
  0.1958606589973677  0.3152894006770052  0.7408575859179516
  0.9696968533973359  0.4927869378987668  0.7844972576625328
  0.0672115125716215  0.4060897546499045  0.7843326305936561
  0.9570993255126720  0.1016790885459400  0.3833919957600977
  0.9027189237820763  0.1594677711521144  0.3358189710903520
  0.5699913478827029  0.2062720876955582  0.9206252609780459
  0.5295794403074195  0.1326756931561972  0.8821306980629646
  0.2267452477096496  0.4029679356338768  0.9201522437008446
  0.3160504312401227  0.3142212456854039  0.9023443689620779
  0.4275338176102161  1.0107177611685965  0.8452083799490369
  0.4623970680063448  0.9947600994413177  0.8986634544123026
  0.1832852989186612  0.7797571429810347  0.5115015945273464
  0.0732609902286690  0.7126726117059042  0.5115403276966261
  0.1455597355091281  0.3600699782786169  0.4364272613583469
  0.1929788136241775  0.2609147607788434  0.4236497077950691
  0.2588626687857260  0.8861586348854930  0.3721389264631013
  0.2570072676564914  0.8609297753666395  0.4327394180159161
  0.9541035271934704  0.1634872274926522  0.6901041723423551
  0.8415497967110654  0.2163272051062132  0.6620832493104207
  0.8734460193058784  0.5347365114104999  0.8904313172699213
  0.9498616955917307  0.4740883097987829  0.8522442344558394
  0.8123551444743861  0.6220545483185593  0.6402787453371509
  0.7301374310628819  0.6478267946697682  0.5928199598596841
  0.4973305561357090  0.9486880281404476  0.5527357724320412
  0.5134252627489767  1.0127987942214720  0.5033163784339385
  0.2778983557350267  0.6627095875270848  0.6196649145108866
  0.2891964969122243  0.5682566337067300  0.5943528458366210
  0.5487473266860767  0.0991298611782492  0.6792794426943388
  0.6088369964675265  0.0641755790338980  0.6320360595912535
  0.8816758284267266  0.1670063498463981  0.5193350780046080
  1.0041027879773770  0.2198216459041571  0.5299812450476674
  0.7733708388039124  0.0576753301355610  0.3463985085228920
  0.7844590615914949  0.9459264676901149  0.3403387115846987
  0.8378297753331047  0.6062510797110334  0.7780876324983299
  0.7712497077982901  0.5048828804113648  0.7674974883350627
  0.8987217888725371  0.5763268546905375  0.6989266953596507
  0.9714297412167401  0.5115268571483236  0.6632307333425834
  0.2933348320888668  0.3514935263301729  0.4714096028275084
  0.4157591881165775  0.3926959988082573  0.4993630502770788
  0.7371788586636360  0.8527371080945161  0.6878007309383495
  0.7475374645015151  0.7899361963971973  0.6388118209892153
  0.5834286627645774  0.4604812381176821  0.7986997625103103
  0.6783252115058531  0.3997785817129188  0.8285786064670546
  0.7181178427605466  0.0081762968562808  0.4637331413042772
  0.6230087487972605  0.0540618510243892  0.4272380660502115
  0.1110406841230757  -0.0242332536025803  0.5317667758307075
  0.0541045733546397  0.8841152827917115  0.5159530715984272
  0.7319651666883966  0.2693204169845554  0.4506057185691913
  0.6012966926155330  0.2384449926835668  0.4381402714970127
  0.3206817584946013  0.6799820663147761  0.8946951865844814
  0.1726709087914101  0.7130244032564090  0.8925627968250247
  0.6447744900343094  0.9702147903616366  0.8749990531368045
  0.7142349259769919  0.9657404917414778  0.9256250003403861
  0.2313646898447872  0.5959250775203405  0.8211691682484932
  0.1573611832478672  0.5316994895604451  0.7890243858917798
  0.9065362156808739  0.0140984034692854  0.5224847610545286
  0.7940212180894225  0.0586426659947736  0.5532707268760130
  0.3636571877759264  0.2841073406653620  0.7019906600595698
  0.4012398178283384  0.3618779052062998  0.7391064963694647
  0.3737840574565188  0.5113932800589908  0.7690011574359287
  0.4577853716024367  0.5028271080171655  0.7211502110572784
  0.4664739355265903  0.1963347446444283  0.7512273782360256
  0.5924301364712431  0.1447885260016739  0.7588059515021355
  0.5404600745246793  0.6801104119045337  0.8915473914448723
  0.4803620337833797  0.7697142033565996  0.9181438011877082
  0.2668219689520411  0.1708332572521971  0.8525627370486369
  0.1334937681836527  0.1733178519504211  0.8704443339140633
  0.9822703360241770  0.3813036234505488  0.6359146520599330
  0.0717498856181807  0.3636914357836773  0.6811752366131831
  0.0855976534979061  0.0818421991734094  0.7437830103329712
  0.1467702979720898  0.0921234742730404  0.6906334423287281
  0.1518112383902266  0.4356396699927186  0.5878829437659767
  0.2558149960702603  0.4380586768287709  0.5381718663895275
  0.3676780537206528  0.3224921567745007  0.8217943668742829
  0.4632094281627125  0.2643141998095569  0.8564997580000939
  0.8781908783503659  0.2990748270631475  0.5888456337927124
  0.7622207172205994  0.3417443360023545  0.6151074919735283
  0.3510318071460279  0.2562782616729059  0.6144819487193566
  0.4352757109967631  0.1810726087121315  0.6332059532530094
  0.0895576728431210  0.5383233032019923  0.5272946665740142
  0.0427771462385651  0.5418767093253976  0.4736258307851602
  0.5185131130457628  0.6602454053676455  0.5180125642002477
  0.4036671285269736  0.6559212837824597  0.5537682654881054
  0.4888682858136654  0.8777608947527090  0.8073811922542521
  0.5047474795607140  0.7814546516629134  0.8342126957030895
  0.0171855119586150  0.8597377757736065  0.8859056735796383
  0.1111687711499485  0.8365191415291877  0.8476990653330867
  0.5043610317161682  0.7896330611893562  0.6808596530542779
  0.4940071914501049  0.7608391592561560  0.7376647953984838
  0.8634811619746311  0.7345571230493114  0.8257428946699127
  0.9673134744001862  0.7216661411450331  0.7841646509699677
  0.2314320753367936  0.2613072404603349  0.5363096596763394
  0.2215712175436651  0.1646636527134722  0.5596056203749640
  0.0496412460873392  0.6945631896963702  0.3604392795299802
  0.1003065828393749  0.7814223000996705  0.3886318274551076
  0.5581896316932784  0.4292828311828055  0.6278631823761402
  0.5266836634302882  0.3243106567496771  0.6223658709345253
  0.3470515811246936  0.8894274212024047  0.5028266219679349
  0.3636149512584363  0.7866822344715845  0.4909998067401521
  0.8066800507886617  0.7998760381477672  0.3496976970022548
  0.9425294591225013  0.8149374275564450  0.3600540129615996
  0.7751945593283786  -0.0244040677468158  0.6323960834106743
  0.7888281460443369  0.0821157745126641  0.6447155551805828
  0.2339652906237365  0.0578633946662163  0.9070076904557350
  0.1942267498845524  0.9463009949536103  0.9046689516872505
  0.8215068115190867  0.0329654475044461  0.8611689952771990
  0.8022884082519059  0.0975714405273335  0.8149375898102499
  1.0694781095918737  0.6685396225747237  0.6476460847589692
  1.1173441926794370  0.7340072453831283  0.6006847631969939
  0.1729856679859628  0.7890322406012269  0.6689634723148917
  0.2805070117374721  0.8246905003864747  0.7024746919730366
  0.8439769594257422  0.5680657244895271  0.4093393110180614
  0.8902812930420479  0.6637572864141859  0.4255698101134853
  1.0355077872108067  0.4554739924491537  0.3701209254607899
  0.9360681726357647  0.4211269975752197  0.4046139465710357
  -0.0039824644408898  0.0354852620421754  0.8034173446059956
  0.1243506588267337  0.0691289020409083  0.8143453951699837
  0.9013063693067581  0.2449278438586063  0.4139770335134127
  0.9143348430752340  0.2902286363397943  0.4654776243534008
  0.3114523202123085  0.0120743208431350  0.5457432551196736
  0.2223461923875504  0.0010111700369136  0.5885027366731019
  0.3408654973347811  0.0074633503933448  0.6614675380075301
  0.2401731769900792  0.9426772262738168  0.6756596351438512
  0.8326654301153169  0.7509988237916229  0.9114854951192592
  0.7910180898339094  0.8419894908368249  0.8836705766881493
  0.6142779441478410  0.4410625173901963  0.3917276805802539
  0.5613196085380657  0.6026498446675619  0.4268020074688577
  0.2179652507110285  0.5712988638758759  0.3505163489197710
  0.4078117952347606  0.6593924187537389  0.3587777269899615
  0.2447288744945055  0.5126917372950028  0.4081725507884002
  0.3373861151368361  0.6540607283121097  0.4219296129920639
  0.4136589636023492  0.3814110181899183  0.3982420109919023
  0.4600555657213144  0.5149972029774040  0.4504896613192677
  0.5678266449178944  0.5206666107949810  0.3435605419527268
  0.4794592703853814  0.3578769149374854  0.3370542029391558
  0.4436669987642158  0.4159130776088933  0.3626680330432709
  0.5381605243403325  0.4865088378043093  0.3799197435450147
  0.3266859495283577  0.4554917319978917  0.3440494517826174
  0.4858980393522434  0.5588271172379764  0.4169521125274276
  0.2826267983272129  0.5384258207660997  0.3735383808674899
  0.3784375287750083  0.6097824336127986  0.3917088953852770
  0.6985216184540484  0.7219120453465717  0.3552625918242960
  0.0829535418130647  0.0274557824864342  0.4145636409628768
  0.7651039043246237  0.8745104364303516  0.7547426249987710
  0.6824483004603791  0.6224295731370677  0.8804175248762777
  0.3761279187629850  0.9962780262902790  0.7899754052650254
  0.1291455025346815  0.4930313364300578  0.9216586325662985
  0.1104794997685509  0.7546033807469126  0.7866337966061974
  0.5229754180127755  0.1618599031715247  0.3823634325714680
  0.7625076250935333  0.2877483207090129  0.8468930199335774
  0.7229024861083166  0.1805971089033362  0.7664477321877330
  0.9838259776431606  0.2205711412348978  0.8823464877020523
  0.5214431344056060  0.5340431089880997  0.6589969487296210
  0.5922764046010542  0.4150685514902321  0.5166812008526883
  0.5130788731456268  0.8379876295103366  0.3835403556177496
  0.5151339656971002  0.8489656518333533  0.5935057818787559
  0.2534062156680916  0.1775228802120798  0.3846229938984142
  0.6680094927868819  0.5987441564857279  0.5211035750928680
  0.1096752712694298  0.3202764094013443  0.7413947248157995
  0.0409844600693889  0.4626979517535773  0.8027122134372380
  0.8868469891599701  0.1430961686934120  0.3739724998487532
  0.5797189116120897  0.1904970055746583  0.8858574672162233
  0.2428958826362857  0.3341318181181104  0.9209898252095996
  0.4925541606410652  1.0223305945628687  0.8691069760038173
  0.1141359619102189  0.7590714639592899  0.5320280958095724
  0.1674743162706643  0.3023968951448868  0.4531210623177330
  0.2080082215906230  0.8729048704894423  0.3991187318924134
  0.8657037712407794  0.1640270842812957  0.6838437799552987
  0.9192897381288321  0.4764158314413884  0.8872892735073478
  0.7389805472473485  0.6596044501710252  0.6281383410982329
  0.4561796776802232  0.9848834432168744  0.5265217588421643
  0.3381006446696632  0.6207975356589037  0.6079650450329467
  0.5250156112718898  0.0738864682240964  0.6457561168689794
  0.9183087315556030  0.2329806113240654  0.5289548687871269
  0.7273974071127929  0.0022774616321479  0.3361625398822748
  0.8463227204213125  0.5430451651345931  0.7638785667991119
  0.9344133827016903  0.5785322563264421  0.6650422514260883
  0.3309718077633282  0.4001601179100168  0.4949080808488249
  0.7162233232468321  0.8499702267173241  0.6498637036422642
  0.6490797941579229  0.4621695759632777  0.8239835375071410
  0.6365648407994750  -0.0006003541831925  0.4501811360965385
  0.0410602593017999  0.9512261055287734  0.5120584167408122
  0.6495963113151911  0.2676782143507991  0.4635907282939473
  0.2346721214136649  0.6648778427699986  0.8937710545505094
  0.7284060064772147  0.9593478737224218  0.8891372403338719
  0.2289771652154390  0.5713610439987874  0.7880858771617222
  0.8299942922383599  0.0495927103671530  0.5204019117294780
  0.3614545098063481  0.2983219622943536  0.7383693169592361
  0.4453725303108705  0.4769752893755726  0.7554194645351447
  0.5007298601627446  0.1326748080251532  0.7531135389578985
  0.4686757890694631  0.7250516999903521  0.8895182974599504
  0.1977360402766198  0.1298027280687263  0.8589008291451524
  1.0524551306835876  0.4088951017863837  0.6532648465779286
  0.0936720231755088  0.1282516087362519  0.7154699479771166
  0.1936780493428722  0.4723684541868280  0.5610316434750779
  0.3761323641744263  0.2739261591115092  0.8479820611489475
  0.8467137590573028  0.3209798122605639  0.6223382097786216
  0.4154426011705684  0.2460756725950925  0.6397830628027357
  1.0289623440201181  0.5712257918663034  0.5040037327222663
  0.4342967577730392  0.6847918289000848  0.5220250266175249
  0.5288497182263946  0.8176947664188901  0.8047565045045637
  0.1023512396024650  0.8667980047496554  0.8816940858997879
  0.4475672106953711  0.7559269541277205  0.7057991034934881
  0.8776942882909021  0.7126315320938558  0.7911867799539747
  0.2035890102659177  0.2334674584237859  0.5666019245019683
  0.0205399602043554  0.7448962059622662  0.3833791283525692
  0.5938247908343395  0.3694170667697663  0.6115303081895542
  0.3120928711641226  0.8378843101872437  0.4833193323308722
  0.8669868119378943  0.8534551729498592  0.3418434664022999
  0.7556758211038274  0.0389230605848222  0.6210430882806188
  0.2530802589335848  0.9947296585062486  0.9217513237074031
  0.8601600168321580  0.0852195495540257  0.8423762623100561
  1.1336475077305543  0.7130021614916534  0.6365206699861268
  0.1989597480381975  0.8363108343875399  0.6950029431457506
  0.8182183991956217  0.6291037912710438  0.4177902935756714
  0.9870646533276676  0.4763659986024503  0.3964483271696693
  0.0822452310934496  0.0259517107002720  0.7943820905619552
  0.8788708171645111  0.3049235667986130  0.4303755537940782
  0.2243461383799290  0.0284309414608103  0.5539242299829276
  0.2556968583606371  0.0031900943022939  0.6588834024363864
  0.8515569400709971  0.7921263174676303  0.8810931466781828
  0.2328206755485655  0.3957228434061417  0.3356690807136791
