combine
1.000
11.0985002518  0.0000000000000000  0.0000000000000000
0.0000000000000000  14.4173002243  0.0000000000000000
0.0000000000000000  0.0000000000000000  26.7964000702
Pt  H  C  O  
96  170  6  81  
Direct
  0.0000000000000000  0.0000000000000000  0.0018699899937576
  0.1249999521128992  0.1666699702868031  0.0018699899937576
  0.2499999943280624  0.0000000000000000  0.0018699899937576
  0.3749999464409617  0.1666699702868031  0.0018699899937576
  0.4999999886561249  0.0000000000000000  0.0018699899937576
  0.6250000308712881  0.1666699702868031  0.0018699899937576
  0.7499999829841874  0.0000000000000000  0.0018699899937576
  0.8749999350970866  0.1666699702868031  0.0018699899937576
  0.0000000000000000  0.3333300219343480  0.0018699899937576
  0.1249999521128992  0.4999999922211510  0.0018699899937576
  0.2499999943280624  0.3333300219343480  0.0018699899937576
  0.3749999464409617  0.4999999922211510  0.0018699899937576
  0.4999999886561249  0.3333300219343480  0.0018699899937576
  0.6250000308712881  0.4999999922211510  0.0018699899937576
  0.7499999829841874  0.3333300219343480  0.0018699899937576
  0.8749999350970866  0.4999999922211510  0.0018699899937576
  0.0000000000000000  0.6666699625079541  0.0018699899937576
  0.1249999521128992  0.8333300141554991  0.0018699899937576
  0.2499999943280624  0.6666699625079541  0.0018699899937576
  0.3749999464409617  0.8333300141554991  0.0018699899937576
  0.4999999886561249  0.6666699625079541  0.0018699899937576
  0.6250000308712881  0.8333300141554991  0.0018699899937576
  0.7499999829841874  0.6666699625079541  0.0018699899937576
  0.8749999350970866  0.8333300141554991  0.0018699899937576
  0.0000000000000000  0.2222199683821562  0.0864100026098289
  0.1249999521128992  0.0555599860957249  0.0864100026098289
  0.2499999943280624  0.2222199683821562  0.0864100026098289
  0.3749999464409617  0.0555599860957249  0.0864100026098289
  0.4999999886561249  0.2222199683821562  0.0864100026098289
  0.6250000308712881  0.0555599860957249  0.0864100026098289
  0.7499999829841874  0.2222199683821562  0.0864100026098289
  0.8749999350970866  0.0555599860957249  0.0864100026098289
  0.0000000000000000  0.5555599783168760  0.0864100026098289
  0.1249999521128992  0.3888900080300730  0.0864100026098289
  0.2499999943280624  0.5555599783168760  0.0864100026098289
  0.3749999464409617  0.3888900080300730  0.0864100026098289
  0.4999999886561249  0.5555599783168760  0.0864100026098289
  0.6250000308712881  0.3888900080300730  0.0864100026098289
  0.7499999829841874  0.5555599783168760  0.0864100026098289
  0.8749999350970866  0.3888900080300730  0.0864100026098289
  0.0000000000000000  0.8888900002512240  0.0864100026098289
  0.1249999521128992  0.7222199606033073  0.0864100026098289
  0.2499999943280624  0.8888900002512240  0.0864100026098289
  0.3749999464409617  0.7222199606033073  0.0864100026098289
  0.4999999886561249  0.8888900002512240  0.0864100026098289
  0.6250000308712881  0.7222199606033073  0.0864100026098289
  0.7499999829841874  0.8888900002512240  0.0864100026098289
  0.8749999350970866  0.7222199606033073  0.0864100026098289
  0.2446812340036280  0.4420155589573575  0.1728888615807796
  0.4943127079183728  0.4516273768111907  0.1731074486478727
  0.1291200945521971  0.6176733880238228  0.1697422169688501
  0.8845190183428490  0.2852547503913603  0.1685572913849352
  0.0039072317625048  0.4564766940975271  0.1699877721883110
  0.0000423637058461  0.1123783134493660  0.1693431633619482
  0.1415012862702145  0.9455859872587145  0.1710396209413585
  0.3800373865483251  0.9486250915513579  0.1723737178016213
  0.8779478803381289  0.6232019813984446  0.1730783901886036
  0.5030440664714604  0.1124793444799569  0.1705408260821616
  0.2510403602097614  0.1158264801745209  0.1698362970913067
  0.2559541701897319  0.7768736199321126  0.1720439064472287
  0.7588405227664961  0.1090655407834060  0.1763342507994110
  0.6270692090286050  0.2858749761105229  0.1682685806820150
  0.3767518971963664  0.6153281671659667  0.1738188287194518
  0.0046878175626983  0.7829543328489622  0.1724785228124676
  0.7475833947523088  0.7843533629021759  0.1746960616439647
  0.6252258486703727  0.9482861009481267  0.1717716384865740
  0.8877470451651388  0.9506228260336749  0.1735543321049277
  0.7547492936571722  0.4549670637325219  0.1751323888957362
  0.3788274613336257  0.2824227392335998  0.1723265216634577
  0.1271489473067437  0.2867743834890378  0.1711108456765841
  0.4944663327831128  0.7762117594276113  0.1746959074665383
  0.6312456176197102  0.6175249301942222  0.1728974182562807
  0.3901863266253172  0.5130528066088835  0.2639155679446913
  0.1327643597846496  0.5250051025394044  0.2554529225406101
  0.0191965320598561  0.0249244679939685  0.2556086983384436
  0.8832794386890334  0.1875029586776363  0.2615930002401879
  0.7606409516034246  0.3552174234235767  0.2595397498201366
  0.0126144755528833  0.6860888206328700  0.2587506195696327
  0.6348318454520288  0.8502652758134670  0.2593518656160342
  0.2606430283164468  0.6834435712445192  0.2609899564336443
  0.7562186212627067  0.6850161580150844  0.2616418504848689
  0.0120763536477158  0.3508574557720706  0.2557759296377323
  0.1468245890372184  0.8522121582923857  0.2557822233823979
  0.6422286275791171  0.1846326960031966  0.2572095241653316
  0.2611656439283228  0.0204792318885303  0.2620032386480039
  0.3810169386998185  0.1793254886266702  0.2541701429616388
  0.8939309023298821  0.5227009528523494  0.2581955022904075
  0.5068185824195234  0.0148096870966261  0.2597848541058912
  0.3939309926033406  0.8512895973764675  0.2597758925551094
  0.5149971890006494  0.3454732305223832  0.2567286947715979
  0.1373176904017124  0.1823223408200633  0.2608019430815969
  0.7649203043017585  0.0254037219383619  0.2622945767672867
  0.8890062609044665  0.8542898496031008  0.2612019846309064
  0.2688415416863270  0.3445180656936179  0.2578017382485079
  0.6385280539188751  0.5164502851061018  0.2612920923130456
  0.5093490847993783  0.6786681938417543  0.2613265481764295
  0.6903471841213298  0.7412643394626184  0.3724239964680269
  0.7963017705537878  0.6677258158205143  0.3899692406227762
  0.1851923290236132  0.9750113457100119  0.4154156463680875
  0.1144768007726036  0.0312211945507887  0.4548019039002592
  0.8015645622170603  0.8242956631900898  0.7492418621047313
  0.6768457041555391  0.8615983625535631  0.7573201208310120
  0.6633430935234679  0.5310740290678626  0.8468358561990462
  0.6656787498384548  0.5432841106754644  0.9050730438776803
  0.4179186980193784  0.0292675173808755  0.7668024252239282
  0.2910051971730316  1.0067811812113905  0.7903276308690346
  0.1689601556837260  0.5495617557679523  0.9027755577251106
  0.0444276046414497  0.4941768819165950  0.8998997879725275
  0.1855621293936528  0.7004030284519015  0.7725664600082786
  0.1647080529554906  0.7915962358170369  0.7413049089713691
  0.5589835867592857  0.1279078217287755  0.3452776818625452
  0.4717563462100060  0.1505348247060850  0.3915669920143003
  0.6818888792990386  0.2732771762121846  0.8574284841511740
  0.8217260932548875  0.2638042450756180  0.8560923698893252
  0.7226430452348047  0.1877341235037931  0.7740934448305982
  0.7747331154320134  0.1191408642448103  0.7332307912565568
  0.8982486679389994  0.1219930137846176  0.8712208305794918
  0.9002477657627257  0.1929000789421398  0.9197101977032864
  0.5682864124346065  0.5674065624999625  0.6402231148906695
  0.4292751988564675  0.5460148532963085  0.6373518724887633
  0.6069855363752796  0.3936404261204562  0.5430706890804898
  0.5896511584291425  0.3626584613385105  0.4869772925435579
  0.5449522276506761  0.8504026507567080  0.3534641229824461
  0.5922314656733898  0.8769514697342626  0.4089604742835222
  0.4937104369404615  0.7748976490737141  0.5591755975110788
  0.5884380219247020  0.8261516745156291  0.5943049018442700
  0.3230578504351068  0.2085409984965461  0.3617261365783025
  0.2535678040412332  0.1320384915472222  0.3897192433327503
  0.7325466045091467  0.5962159744243899  0.4728429760940434
  0.6371645696140885  0.5210444577507389  0.4985880965539817
  0.1390756061973025  0.2556410669653617  0.7169898368388035
  0.2490675392156411  0.3140283459568325  0.7222750320228198
  0.9713418567118186  0.4761113524035863  0.7727778027477944
  0.0688816965856277  0.3937485727759147  0.7683164507905609
  1.0172831185158455  0.0662398971057265  0.3902398889628890
  0.9805658798390333  0.0970148279594358  0.3383425437614139
  0.6016062733987061  0.1847635270929745  0.9095957465870930
  0.5569409753356095  0.1042149535228223  0.8760526983848987
  0.2015418910530028  0.3959866942687039  0.9121744273434250
  0.2849787448341985  0.2916142512946893  0.8948538532855629
  0.4536388137111994  0.9952588322476084  0.8419961441720482
  0.4525286668696925  0.9764837920674942  0.8950031644948865
  0.1479267672525152  0.8033798530863545  0.5105772349516159
  0.0405443987557706  0.7402671301254800  0.4921814085007264
  0.1060457766362728  0.3038145057780864  0.4356279283679494
  0.2357352020490946  0.2661222002877647  0.4202058869811447
  0.3392352729270224  0.8793058134027666  0.3873832061174523
  0.2646916678155280  0.8452718677911620  0.4381670188771878
  0.9545479143978767  0.1206957024288843  0.6780186063576860
  0.8358464521812734  0.1847376656491397  0.6626793423176214
  0.8518963538669638  0.5233147066802044  0.8818194891476568
  0.8999900789820694  0.4196848798224828  0.8657764195833207
  0.7454609198443879  0.6008295301640346  0.6153728738226338
  0.6657975136867311  0.6001557657317987  0.5708040487875071
  0.4648872651386572  0.9400136125942407  0.5424046284733470
  0.4688564515873266  0.9725805333973897  0.4871162605090399
  0.3111739014413129  0.6565772675833699  0.6326238516177474
  0.2328702112774952  0.5928834852098682  0.5994762483399548
  0.4817121435784008  0.0850386157550886  0.6771434577355364
  0.5767102302639423  0.0577051755014274  0.6331685093539270
  0.8335837123128008  0.1652343736995089  0.5168190804518256
  0.9539580226060612  0.2149416518619011  0.5299377670731281
  0.8135536306930843  0.0543408999473782  0.3588653534507490
  0.7824120719366257  0.9550041090906465  0.3476736573529769
  0.8708025167483827  0.5879478667103614  0.7746159986386961
  0.7693405423507726  0.5076197894363633  0.7725474482530179
  0.8598366926425300  0.5735576143071884  0.6860654374034648
  0.9198355919345313  0.5198979419091572  0.6465229021291701
  0.2535286083760415  0.3726047571407096  0.4932992257904194
  0.3866058573007745  0.4185535220823903  0.5058665929187565
  0.7218559865600452  0.8386818358072360  0.6732785678985179
  0.6831417276645414  0.7524962591272353  0.6437333127252138
  0.5556304456360998  0.4657632629153379  0.7805921011741291
  0.6502311788414460  0.4001205404932243  0.8134515852538288
  0.6576129907296525  0.0040045251400599  0.4743231860026911
  0.6169727975173447  0.0530916021371237  0.4253688759661411
  0.0743618295513530  -0.0028421825281085  0.5307444145087303
  0.0426714914407639  0.8996478098748723  0.5071279894911113
  0.7289348551024195  0.2879563787679652  0.4365776100316554
  0.6077489745342891  0.2407389161703135  0.4164975423885997
  0.3492368805029646  0.6640993014394183  0.8886895411105220
  0.2148223699786212  0.7094359480397520  0.8850128374323453
  0.6401745557511418  0.9285070065501778  0.8853368302924779
  0.7396874427937741  0.9050062427505219  0.9244956670000598
  0.2511455038664290  0.5831225911374254  0.8108402031384446
  0.1794038410259146  0.5186972803268435  0.7792416452358241
  0.8747536163298679  0.0179176665520637  0.5103525402170908
  0.7812252258311922  0.0403719390832246  0.5506622000620798
  0.4183718768620950  0.2826821500346385  0.6866314357002610
  0.4263260631933231  0.3633544347554397  0.7243480912492262
  0.3630484548979050  0.5034257665292114  0.7601067278231594
  0.4586354403852408  0.5035181385114329  0.7180305315562634
  0.4760145717114503  0.1811237504299656  0.7393678813458664
  0.5755205606779225  0.1042828071351339  0.7522986740565386
  0.5648243337637728  0.6494682953690540  0.8821591682342563
  0.5307426261800249  0.7257040732955946  0.9151183638271816
  0.2105794331284497  0.1604382965682680  0.8611605747580469
  0.0718132161298763  0.1607911615236239  0.8832766475569098
  0.9479150475122755  0.3706476492730076  0.6258562637580006
  0.0312349384002381  0.3974858270441712  0.6726811663722657
  0.0943340651481445  0.1055692669099494  0.7343264711173995
  0.1595499374352684  0.0946862469853492  0.6831738973907387
  0.0946565371235288  0.4753642541443819  0.5681117042445462
  0.2208958996511612  0.4931651520522606  0.5399106482847797
  0.3469476139152670  0.2533919222575789  0.8182734216333987
  0.4360227986312978  0.2138674020884314  0.8659138537756134
  0.8369594782586478  0.2678496120717008  0.5788491627033777
  0.7489291425075137  0.3246075403640438  0.6154674056400929
  0.3832657809337907  0.2510159844004852  0.6053008838839500
  0.4703014356785239  0.1701640283501216  0.6267334146714973
  0.0764297289322876  0.5684516905936816  0.5030240734944884
  0.1111186003892721  0.6090105131820065  0.4461828205086492
  0.5315305982304451  0.6484453464763659  0.5079795750078306
  0.4337391880780710  0.6512641404230649  0.5478376273209012
  0.4556927793716770  0.8574521778053781  0.7797388354055893
  0.5256919262991190  0.7680360802736648  0.7970944107695053
  0.0556799380528713  0.7941014591694037  0.8775595049258602
  0.1421710109745767  0.8159695258250876  0.8318138687997890
  0.4396148568279478  0.7821758242845722  0.6373043133130285
  0.4528340269835016  0.7642715914404141  0.6979548901346287
  0.8994428243384509  0.7309989910619135  0.8151069699952042
  0.9878215992130936  0.7451812944903579  0.7700652783038550
  0.1385854521245378  0.2385665267275792  0.5143781357753525
  0.1585248756393599  0.1602226173875876  0.5514631388614623
  0.1158690006058644  0.7253448253074539  0.3377164890467489
  0.1520851534175752  0.7965061804390325  0.3787193274661486
  0.5849958817225784  0.4377175300937040  0.6369472337249146
  0.5535251281724892  0.3289368860618463  0.6256042763685636
  0.3440656925498273  0.8681815622111544  0.5039691451471603
  0.3489966016689333  0.7578331383211855  0.5005827760467484
  0.8396940070068072  0.7908343144080975  0.3466958668538292
  0.9846022796303234  0.8221234020584798  0.3508092972963975
  0.7385208578222685  -0.0545124204027706  0.6165066944709450
  0.7786988710117245  0.0417314171751745  0.6418850649915537
  0.2069183448752498  0.0328474108766777  0.9064710542336184
  0.2378177731691206  0.9184024164581674  0.9060898229199629
  0.8256210349964971  -0.0335481771049464  0.8507951424472758
  0.7902832425018407  0.0419657778354530  0.8105001847749281
  0.9923462068502251  0.6822371136463981  0.6294942857178391
  1.0254520584395344  0.7597205297312732  0.5881961852714778
  0.1387316906849899  0.8023730775684572  0.6574856186967096
  0.2778739114232868  0.7977228063209321  0.6725243554353865
  0.8569455427959735  0.5202591132809806  0.4073035474432121
  0.9268746812013294  0.5941865816500974  0.4420287048211545
  0.8669644243544945  0.4393893567758850  0.3449145164979998
  0.8995491346842841  0.3701793260020099  0.3903056463069868
  0.0507935147731849  -0.0119779606246207  0.7941951497121814
  0.1188407102379519  0.0690004176873067  0.8194045215169874
  0.9234712419939578  0.2184778471971464  0.4052100071634345
  0.8861054458511193  0.2520362556628681  0.4604897398372028
  0.3097042275187165  0.0357130784466964  0.5420019484651469
  0.2298822375109837  0.0318918833586490  0.5919970400815709
  0.3345270598699001  0.0226548125320639  0.6501928191718463
  0.2285838289176548  0.9573784625595647  0.6689670869944661
  0.8992239637045911  0.6945778782647363  0.9104924416781146
  0.8271298362417180  0.7748810860073780  0.8933620018840586
  0.6298354886522884  0.4731550099860121  0.3898893816755148
  0.5457447026158024  0.6280928596907029  0.4086977276540662
  0.1973700447449856  0.5580608841479989  0.3538363904315761
  0.3963036051908593  0.6548742504291167  0.3542369564356617
  0.2433641530405826  0.5101980189052447  0.4078626270905063
  0.3372298430135176  0.6609379105416150  0.4143587155219365
  0.4293807843656276  0.3833682643775533  0.3982857594579996
  0.4808531234420131  0.5403013800788220  0.4477136953273760
  0.5598313808924140  0.5309261456939417  0.3394891874008396
  0.5006573807662721  0.3698869610561170  0.3420817254513988
  0.4528127036970546  0.4225456580096835  0.3643416083437782
  0.5415439088200427  0.4999287361132795  0.3763654293703314
  0.3369896909713921  0.4579562715682138  0.3432870077324287
  0.4857090897957788  0.5718140543404179  0.4097147319616824
  0.2795998387526927  0.5403142358005671  0.3735644434989691
  0.3701092599005711  0.6137670674767153  0.3866547666162931
  0.7659610835906652  0.7101042485294484  0.3627601158265379
  0.1591521316056668  0.0399753375828714  0.4215714654619905
  0.7475909401501646  0.8699105708752026  0.7366124445294818
  0.6857992865987060  0.5754948928451580  0.8746608879961042
  0.3736673970005450  0.9803342051640070  0.7893907385986465
  0.1283704553206577  0.4907484417280021  0.9112957836323923
  0.1464635080524835  0.7632056784288991  0.7729905550833718
  0.5555609566076273  0.1439171922287373  0.3825963228732866
  0.7499143560005015  0.2876517672088192  0.8349921697796550
  0.7161270060980510  0.1276935589020368  0.7602851916014084
  0.9203492534266844  0.1856907415084355  0.8820032760476546
  0.4993931885077078  0.5396736493484355  0.6606827023600212
  0.5722547775741088  0.4108255868263698  0.5113398121129684
  0.5698875284860404  0.8286047509827745  0.3850875994860074
  0.5007061033673201  0.8321315135811076  0.5804817866336589
  0.3151421175156295  0.1805841868030052  0.3941823321277634
  0.6807747543344520  0.5833232328772100  0.5033211904459872
  0.1652257784652114  0.3150232782587779  0.7311451541689783
  0.0438321021366019  0.4464273768851546  0.7879521337599737
  0.9465936826100563  0.0982289762346099  0.3734693468369800
  0.5597821607646846  0.1772440337819261  0.8769980242321632
  0.2607850858164901  0.3417932032721650  0.9207140506137345
  0.5118744284281677  0.9936683147343952  0.8694264787160312
  0.0560059565074289  0.7988339141740516  0.5084356789907530
  0.1882722031799846  0.3015473309678604  0.4485413003355824
  0.2596707886304361  0.8708114838892848  0.4025858060574733
  0.8583032153425463  0.1270402034850411  0.6795536937198776
  0.9081837050159339  0.4714147090135934  0.8880021660731384
  0.6639753660684778  0.6165467738348067  0.6072191410963120
  0.4173202093092554  0.9620593436434068  0.5142314717947541
  0.3119369472139727  0.6152412732204631  0.6039424181682331
  0.4920439612923665  0.0746919725362301  0.6406175571132184
  0.8685513337026420  0.2286077305891732  0.5216027131212957
  0.7436975605295268  0.0160065868720026  0.3438413468213020
  0.8457556204837351  0.5312086505344205  0.7574148223279799
  0.8882915918302632  0.5890425227801157  0.6516832878726931
  0.3017520261403649  0.4243324986524676  0.5102419909868867
  0.6887648766111640  0.8232753751215091  0.6413909611318817
  0.6368229191916015  0.4617435875185308  0.7976253779689323
  0.5939272850249231  0.0005416621335829  0.4489290726845837
  0.0180980725001492  0.9697651723056101  0.5087668799795706
  0.6404055124968141  0.2921073955442636  0.4385528251598570
  0.2618152294161306  0.6482461235042897  0.8871946140645361
  0.7111557536992369  0.8861938403395034  0.8902234315507425
  0.2467046640428675  0.5659897130356244  0.7755429917136959
  0.8007232985068138  0.0523896652597226  0.5159141684212366
  0.3971450795962399  0.2988969726479583  0.7200999600785547
  0.4377831673979545  0.4687042602685409  0.7479776011700069
  0.4894848531826565  0.1111331069806999  0.7378511305325660
  0.4975014344036706  0.6946955900744091  0.8880994100795413
  0.1443690276657097  0.1249206919173693  0.8769564899403521
  0.9849116324367482  0.4195478832441171  0.6432308332666028
  0.0914729081828285  0.1280817939677508  0.6997331513553586
  0.1484907267387516  0.5259219060805919  0.5583151445905523
  0.3505058928091738  0.2294368891843345  0.8541945636516675
  0.8307967373613895  0.2930449145658359  0.6128634603669516
  0.4498680715883425  0.2438151228601935  0.6258177381800388
  1.0477353986466842  0.6021813309517543  0.4716169533927128
  0.4689305644207130  0.6876855658515900  0.5215177456632031
  0.5163891036512342  0.8110742697020970  0.7686999235956048
  0.1354452337518485  0.8205283985528137  0.8686869707206257
  0.4073215078376757  0.7508802740095271  0.6672415860996119
  0.9056965949764019  0.7295251368541622  0.7794827261900970
  0.1075487774941855  0.2167972214611878  0.5464119812639713
  0.0883721104156330  0.7523325409786722  0.3678616808032463
  0.6085525195536762  0.3814315634858746  0.6164127647492881
  0.2980488879804739  0.8101276956148764  0.4907643606845823
  0.8991794116940689  0.8512839072681445  0.3420046509341282
  0.7234264880336271  0.0128565519976886  0.6182156686570308
  0.2569067459125901  0.9816752619360239  0.9207986151594966
  0.8559995183456611  0.0221057507675973  0.8329257958766331
  1.0408920549176357  0.7401360400204952  0.6233726249884030
  0.1979116485260032  0.8298991980713177  0.6802751320940381
  0.8392849633525292  0.5785147425758737  0.4286078203083896
  0.9095343749226691  0.4327836046781739  0.3768462664143464
  0.1242463103225462  0.0309448541792894  0.7895457798985641
  0.9176558019042456  0.2723690120346827  0.4273753328953983
  0.2280318827032096  0.0490995288359801  0.5561450149109067
  0.2466812402654109  0.0178940744651467  0.6539674186230795
  0.9009971865683567  0.7407191880488501  0.8851879785030752
  0.2584101061974443  0.3892558670132347  0.3322639129836498
