combine
1.000
11.0985002518  0.0000000000000000  0.0000000000000000
0.0000000000000000  14.4173002243  0.0000000000000000
0.0000000000000000  0.0000000000000000  26.7964000702
Pt  H  C  O  
96  170  6  81  
Direct
  0.0000000000000000  0.0000000000000000  0.0018699899937576
  0.1249999521128992  0.1666699702868031  0.0018699899937576
  0.2499999943280624  0.0000000000000000  0.0018699899937576
  0.3749999464409617  0.1666699702868031  0.0018699899937576
  0.4999999886561249  0.0000000000000000  0.0018699899937576
  0.6250000308712881  0.1666699702868031  0.0018699899937576
  0.7499999829841874  0.0000000000000000  0.0018699899937576
  0.8749999350970866  0.1666699702868031  0.0018699899937576
  0.0000000000000000  0.3333300219343480  0.0018699899937576
  0.1249999521128992  0.4999999922211510  0.0018699899937576
  0.2499999943280624  0.3333300219343480  0.0018699899937576
  0.3749999464409617  0.4999999922211510  0.0018699899937576
  0.4999999886561249  0.3333300219343480  0.0018699899937576
  0.6250000308712881  0.4999999922211510  0.0018699899937576
  0.7499999829841874  0.3333300219343480  0.0018699899937576
  0.8749999350970866  0.4999999922211510  0.0018699899937576
  0.0000000000000000  0.6666699625079541  0.0018699899937576
  0.1249999521128992  0.8333300141554991  0.0018699899937576
  0.2499999943280624  0.6666699625079541  0.0018699899937576
  0.3749999464409617  0.8333300141554991  0.0018699899937576
  0.4999999886561249  0.6666699625079541  0.0018699899937576
  0.6250000308712881  0.8333300141554991  0.0018699899937576
  0.7499999829841874  0.6666699625079541  0.0018699899937576
  0.8749999350970866  0.8333300141554991  0.0018699899937576
  0.0000000000000000  0.2222199683821562  0.0864100026098289
  0.1249999521128992  0.0555599860957249  0.0864100026098289
  0.2499999943280624  0.2222199683821562  0.0864100026098289
  0.3749999464409617  0.0555599860957249  0.0864100026098289
  0.4999999886561249  0.2222199683821562  0.0864100026098289
  0.6250000308712881  0.0555599860957249  0.0864100026098289
  0.7499999829841874  0.2222199683821562  0.0864100026098289
  0.8749999350970866  0.0555599860957249  0.0864100026098289
  0.0000000000000000  0.5555599783168760  0.0864100026098289
  0.1249999521128992  0.3888900080300730  0.0864100026098289
  0.2499999943280624  0.5555599783168760  0.0864100026098289
  0.3749999464409617  0.3888900080300730  0.0864100026098289
  0.4999999886561249  0.5555599783168760  0.0864100026098289
  0.6250000308712881  0.3888900080300730  0.0864100026098289
  0.7499999829841874  0.5555599783168760  0.0864100026098289
  0.8749999350970866  0.3888900080300730  0.0864100026098289
  0.0000000000000000  0.8888900002512240  0.0864100026098289
  0.1249999521128992  0.7222199606033073  0.0864100026098289
  0.2499999943280624  0.8888900002512240  0.0864100026098289
  0.3749999464409617  0.7222199606033073  0.0864100026098289
  0.4999999886561249  0.8888900002512240  0.0864100026098289
  0.6250000308712881  0.7222199606033073  0.0864100026098289
  0.7499999829841874  0.8888900002512240  0.0864100026098289
  0.8749999350970866  0.7222199606033073  0.0864100026098289
  0.2462495265301049  0.4549492391539945  0.1736551671534015
  0.4981201730299896  0.4554871537898380  0.1714502630601197
  0.1261424513526450  0.6201437004294680  0.1705324752738659
  0.8716562105975552  0.2856520799128990  0.1677205246124860
  -0.0035205575720614  0.4442303461854254  0.1706394297376182
  0.0026537726027643  0.1187286095294662  0.1754908145975036
  0.1175564578005392  0.9454356711269640  0.1704263512089710
  0.3754336941267554  0.9517560389477309  0.1715735051594819
  0.8782392128719525  0.6088798505218209  0.1715858502655085
  0.5033045252392594  0.1182353647270853  0.1690598388228269
  0.2454617204300346  0.1181727007271724  0.1709623057089178
  0.2519752238818433  0.7824615958947836  0.1706700849486856
  0.7572041856319309  0.1143644161492139  0.1731776253318703
  0.6278230431602611  0.2847299965759928  0.1696213457999053
  0.3735955871720170  0.6167364304111046  0.1769884827019827
  -0.0085465957695154  0.7836774680988218  0.1744302190016196
  0.7484127081992774  0.7798486540669852  0.1730473706897969
  0.6289530343136123  0.9488782531588167  0.1736748201851005
  0.8696439621141280  0.9503620077915977  0.1736372698202245
  0.7471821579996875  0.4564844114855449  0.1750831380151499
  0.3778148234055257  0.2808658714809142  0.1722666808193219
  0.1184848925229089  0.2828959006781054  0.1758746643263124
  0.4990560494515193  0.7797372696902284  0.1713594512423522
  0.6186062224926749  0.6159432919647867  0.1727355172774689
  0.3685905340081004  0.5062281692378616  0.2659371835407446
  0.1139088028578424  0.5046462018275167  0.2523448250990951
  -0.0025229827872877  0.0065854011793397  0.2575518512083660
  0.8673829081040666  0.1823777278126054  0.2570726348036864
  0.7509263375245977  0.3487866323283249  0.2622213504982782
  -0.0074975532830667  0.6650109716894314  0.2649649786202422
  0.6237932738143761  0.8396001121692477  0.2580096702462913
  0.2480057035592345  0.6697346811732094  0.2639783513034855
  0.7421505309840516  0.6746110775377315  0.2582869696701144
  -0.0065287015503062  0.3462756606875330  0.2583218617488097
  0.1171346691900248  0.8266078455877217  0.2568986549262481
  0.6199042966534305  0.1777272970137104  0.2598674070754768
  0.2489923529489323  0.0079365881697560  0.2513941656585261
  0.3717047255489255  0.1728543605896227  0.2554410109181846
  0.8627199077142972  0.5094314402512625  0.2612037612464173
  0.4965736766466413  0.0042103727504882  0.2551759235078835
  0.3789676832252951  0.8467359639375697  0.2579359637672559
  0.5042185321383766  0.3415404668205886  0.2549782032176162
  0.1264873784250555  0.1787323424642850  0.2590102245233495
  0.7446554873357434  0.0098891075986400  0.2577521166576779
  0.8772173785932029  0.8328508444016255  0.2656840132909265
  0.2426313037802800  0.3436039736378954  0.2637254061659953
  0.6079786006226957  0.5113149691490122  0.2662613135685560
  0.4910128426420657  0.6814139237276644  0.2637839669650537
  0.6944868930871919  0.6934208136173703  0.3396412986803146
  0.7314695554368577  0.6625857096600629  0.3955785944279971
  0.2296625508105572  0.9618059203572743  0.3872688598884076
  0.1566172199183479  0.0040421020228029  0.4370305577212034
  0.8267781806205571  0.7755373555067157  0.7565844370657168
  0.7048893618154578  0.8337847047909172  0.7665374155479494
  0.6417511157009568  0.5582000447584312  0.8517159527813266
  0.6648892588440676  0.5806267676239945  0.9110871996440446
  0.4345642457157924  0.0707884185195673  0.7663539240458402
  0.3163977035843635  1.0278454645983828  0.7796887353512356
  0.1548284155619412  0.5852746954993574  0.9036322257529003
  0.0628635222391283  0.5061834270399490  0.8968482361750554
  0.2533705227464344  0.7620703460819724  0.7909442274027747
  0.2146018501746411  0.8347872664824354  0.7480657408564503
  0.6273146138615291  0.2209134072294481  0.4113460452569564
  0.4938835939397316  0.1959646456441310  0.4265552017306737
  0.7259096256535528  0.3166601338234712  0.8301952168619775
  0.8564299473938765  0.3585347814348490  0.8220106616073372
  0.7709734088542501  0.2320380851028873  0.7654221391816575
  0.8107806978461430  0.1608395425928357  0.7155747065675484
  0.8979783053375737  0.1811888015203507  0.8809637565738810
  0.8768481387583581  0.2484323212929349  0.9239667427578904
  0.5478266263510614  0.5779689292489973  0.6297794333936455
  0.4097791087279921  0.5596524154709941  0.6203997041336873
  0.5089289310223629  0.3568081679626510  0.5288130219573273
  0.5475180939527813  0.3085116510859063  0.4708018568072468
  0.6013142658547612  0.8342029911001553  0.3859091756284118
  0.5904957641404844  0.9319375308598984  0.4081323764777771
  0.5295629968064186  0.8103537458704233  0.5750120184179276
  0.5844971756745155  0.8931402014571836  0.6110004569795855
  0.3831295435985025  0.1762681361324976  0.3476658578650063
  0.2994453002207211  0.1132934835016454  0.3808498733958419
  0.7181308714127717  0.5750166102268645  0.4793196089382067
  0.6519017069920394  0.4942029472751679  0.5037232595848183
  0.1211487424602195  0.2583764996321191  0.6885923381484385
  0.2172190328696894  0.3292198154963825  0.7073576816491578
  1.0090080362780354  0.5080087123631780  0.7689340407599838
  0.0916401470491518  0.4288338405951579  0.7413035503746954
  1.0420648265358450  -0.0005260775791584  0.3700892282776693
  0.9803901696569586  0.0891600367198715  0.3584938248322063
  0.6070496977469825  0.2866715304113513  0.9073631301631230
  0.5686271590683137  0.2012531426660276  0.8702546647127271
  0.1714177836948238  0.3692901388101948  0.9054294942656047
  0.3133272991669312  0.3679717956596538  0.9012931598471892
  0.4668442765642754  1.0508065318613120  0.8531989826695164
  0.4543155173314729  1.0684374686071232  0.9124825232920738
  0.2037828423018858  0.8013855818807415  0.5182611708295914
  0.0733215879206761  0.7506884762348411  0.4996062600695482
  0.1961387733308336  0.3202328938408552  0.3757349117016991
  0.2327819620746499  0.2391796824892315  0.4077333296329776
  0.3284345415506764  0.8662597101883117  0.3475552890463502
  0.3443312147765374  0.8462701982744060  0.4064387368104671
  0.9277894180909694  0.1441804480977940  0.6552628706057734
  0.8228244543958915  0.2032449583911104  0.6339927428719421
  0.9808224021740701  0.3389970687828482  0.8627019356532342
  1.0158535493272132  0.4109240381437397  0.8172159919553164
  0.7493234480263419  0.6115445975134419  0.6334130656033796
  0.6846710253187219  0.6190389219652479  0.5798385882057041
  0.4819361199485051  0.9443911412728504  0.5510933359150202
  0.5191436144145278  1.0020585238871544  0.4998354176199621
  0.2307389782222755  0.6609652395764462  0.6117677598727405
  0.2403541888164000  0.5823460779743624  0.5670046211541951
  0.5295377005507417  0.1053208191600744  0.6706189339509243
  0.5345141426777797  0.0756543181615654  0.6160332922763677
  0.8896268821725414  0.1568427411179744  0.5222413516718162
  0.9992391201506139  0.2244736331317628  0.5281040459997274
  0.8225153921422376  0.0070281783706783  0.3498272524123437
  0.6884308497772773  0.9551598512798960  0.3468725767173779
  0.9092354644010009  0.6360070339206109  0.7670848338004599
  0.7965121809918666  0.5657462642729993  0.7583675286143884
  0.8987095276663459  0.5802808175832516  0.6873336214808399
  0.9382700641387212  0.5179943803356981  0.6393309941752983
  0.2270699089447940  0.3427113522594274  0.4544775497789135
  0.3487760928844600  0.3786787506233731  0.4819632649447754
  0.7456936807617544  0.8175509159012666  0.6764845845789278
  0.7225580303067880  0.7778921906680710  0.6226040217004224
  0.5774580074781342  0.5216813170903624  0.7631966808348731
  0.6796690487236413  0.4540777043448060  0.7883881337401722
  0.7019649229396073  0.0337862393320349  0.4735260797479687
  0.6035214016789036  0.0931659593545862  0.4488468103846395
  0.1441509741859517  0.0214320791127870  0.5161005206098485
  0.1026775374641434  0.9161569835687674  0.5062891948156655
  0.8063574360192095  0.2477410955540685  0.3839217813119931
  0.7013602088838581  0.2315066415052097  0.3381402151842246
  0.3467898421028353  0.6921029746805091  0.8972722189290908
  0.2236084258499255  0.7455443620632435  0.9063100432101713
  0.6471139594050280  0.9910444656425771  0.8797914315444851
  0.7093266991928221  0.9445221817430223  0.9258774951599245
  0.2343554969851138  0.5946580116123136  0.8360003839401103
  0.1976007464922405  0.5550923531308072  0.7921287644009105
  0.8957868585521348  -0.0058719123055586  0.5062451245152928
  0.8032467526550855  0.0227694089803792  0.5500355885114232
  0.3996559874457469  0.3249920864311817  0.6911398187622958
  0.3914512101844921  0.3902493099586663  0.7343787701648957
  0.4073951288388437  0.5752608540898081  0.7431273040831030
  0.4583458199025564  0.5297379481234197  0.6947952686079240
  0.5019893014821005  0.2220534199880295  0.7325955187365391
  0.6143001903067271  0.1611323162560273  0.7409714932223657
  0.5226331108529064  0.6708085793135772  0.8770243326429257
  0.5246033170703144  0.7608193221510425  0.9019625621121579
  0.2071705761890750  0.2010112954029649  0.9031672376810937
  0.0739251971154332  0.1788636122700431  0.8972418837013039
  0.9514812437822248  0.3767574027587215  0.6013915686914030
  0.0803918625992097  0.3824742985032575  0.6169348025515060
  0.0872208167624272  0.1441127551535661  0.7188325813332370
  0.1389328209592932  0.0927055573377916  0.6731855831955924
  0.0657889893620158  0.5009429465668673  0.5467786262899547
  0.1544731332525715  0.4683259116030393  0.5060110471696954
  0.4685764815887229  0.4754090623185858  0.8950772116614761
  0.4857615457751265  0.3753180994094699  0.8690095256264100
  0.8389277570895157  0.2749309591902080  0.5731863602074277
  0.7251501969371699  0.3239657421732560  0.5994528812160741
  0.2805887615756859  0.2562070814252843  0.6252338943965824
  0.3933724849528142  0.2013620865789353  0.6173489929192765
  0.0549026114768232  0.6111916738924561  0.4734302378366197
  0.0465816471749102  0.6903571180077336  0.4315846210275544
  0.5277863004823542  0.6223793342442978  0.5187931867109282
  0.4286864138268019  0.6553329339410862  0.5490688290350707
  0.4672920949079470  0.8865876307934492  0.7896930041932330
  0.4982903715844920  0.7892358087765676  0.8108052079115655
  0.0585758068433222  0.8532473065980891  0.8889182934273983
  0.1405090000288177  0.8576918515477737  0.8398692683659438
  0.4858482663930627  0.7441564406501711  0.6685526870500366
  0.4785685192410187  0.7492130807884628  0.7255544232608141
  0.9341279709678404  0.7550577962684092  0.8250443869281652
  1.0465750698988507  0.7512355980175106  0.7829648202159942
  0.1963345216797736  0.2990987043352196  0.5250152697878793
  0.1905515668260680  0.1947477541299743  0.5430037206483386
  0.0785863218373622  0.6976606369233296  0.3451122320786792
  0.1538807841557704  0.7733526193002161  0.3736100278310734
  0.5458590155113483  0.4317615338139518  0.6128781570015358
  0.4928266747403922  0.3257719584408558  0.6056104531946883
  0.3982075063955805  0.8760546397384354  0.4812759233895011
  0.4110206717308640  0.7652910288504243  0.4831790703333593
  0.8233149848528438  0.8019013991061791  0.3673632203173225
  0.9621011818392504  0.8092168152353539  0.3547597102183826
  0.7549028756062041  -0.0513155525923662  0.6181005268882889
  0.7659422894116981  0.0491602666777658  0.6279734384587581
  0.2028288799051843  0.0617012426917947  0.9096021715098269
  0.2351879919250046  0.9499270070423291  0.9064479238691524
  0.8356715537845566  0.0395175198501953  0.8483383156560825
  0.8291122477028009  0.1111755352849235  0.8045693601386467
  1.0226069759253558  0.7046880896311002  0.6303147866038685
  1.1109032311730924  0.7520686949783241  0.5898881674586829
  0.1883667712275755  0.7968284768348701  0.6651128471551804
  0.3187607021341672  0.7902122416302216  0.6819457216016858
  0.8278557658643887  0.5357200190006450  0.4051535211915863
  0.8639996574892901  0.6160196366883394  0.4433365527562573
  0.8769150514297237  0.4566372077626376  0.3462320803949228
  0.8862561625121141  0.3986285315827250  0.3952588736976917
  0.0292192988730532  0.0929640003709554  0.7947477405027805
  0.1569179195556217  0.1284643525268563  0.8080254324191538
  1.0253409480847997  0.2795828833269446  0.4044731327829853
  0.9110498164885034  0.2533472974186707  0.4422921088374220
  0.3351588055419212  0.0471824319197756  0.5433999563804587
  0.2395912170086887  0.0298822151718712  0.5806408847210450
  0.3235824218067258  0.0244527685707618  0.6594563174943711
  0.2332758364158349  0.9449367245566571  0.6637893029810717
  0.8913917164614646  0.7861903988442700  0.9097709049474586
  0.8287855022671361  0.8606430421547561  0.8799763361543216
  0.6117516003929312  0.4720144213359759  0.4032951512773612
  0.5361859690668443  0.6284033057610744  0.4253506880230323
  0.2179444500267232  0.5804038678958898  0.3444134805056714
  0.4152812613895732  0.6482280855085516  0.3502981834951361
  0.2240299271513506  0.5253488678021716  0.4049780603017771
  0.3255014541369314  0.6818832313993322  0.4027530668084793
  0.4186028196058755  0.3799612572100664  0.3994987993482402
  0.4334362971086850  0.5425001834405339  0.4501103776440959
  0.5659560421131025  0.5313738233450682  0.3498800348904488
  0.4810907730649496  0.3717125390624373  0.3400308044897761
  0.4400454589896430  0.4220424995065559  0.3679267966805817
  0.5281252557388890  0.4993078919912355  0.3818610294813242
  0.3273879500530444  0.4657114264002918  0.3446736832561056
  0.4713599595991856  0.5726955577704832  0.4154590985928994
  0.2778252437846199  0.5469602303078122  0.3722567067653707
  0.3708780021636184  0.6217608175274878  0.3861193359964183
  0.7054566519499045  0.7176776557763869  0.3743188939604877
  0.1802100774990406  0.0148178915661287  0.4006498377123188
  0.7455205142026341  0.7867169756084276  0.7461383941806020
  0.6053267771211169  0.5676692855646882  0.8851080896973254
  0.4008036601412477  1.0219036019564705  0.7904041872868605
  0.1434484731972496  0.5167324117273636  0.9098658368671694
  0.1997242241302374  0.8147907231827346  0.7826725010097024
  0.5694587013029057  0.2157869813417894  0.4431369078119370
  0.7784533786624714  0.3374817206413719  0.8041451636245543
  0.7778355052881939  0.1661786998485235  0.7515978067217175
  0.9350965045855476  0.2356283704472097  0.8969727853977589
  0.4815817565831160  0.5339537781855248  0.6364940649758219
  0.5078127145950135  0.3663402547793193  0.4917873016441213
  0.5859968136095870  0.9000009965478819  0.3767027068694104
  0.5128462108451884  0.8602254916559566  0.5985139108195252
  0.3573882682803652  0.1625125946778124  0.3818478026486499
  0.6809023478441941  0.5579415548648990  0.5133606322924752
  0.1327046236595013  0.3254782779296555  0.6943719617655764
  0.0854094432755690  0.4662458476428358  0.7721303083547212
  0.9776684525857623  0.0217214418461072  0.3489009316701928
  0.5875189537291280  0.2683058733826024  0.8724680252553606
  0.2417961345961827  0.3324639534467851  0.9119405962809097
  0.5144479090563604  1.0648278237297635  0.8830472820979713
  0.1174396864737295  0.7969737239870707  0.5235311069489975
  0.1671399477689923  0.2843127814589863  0.4045057068562828
  0.2811614345725594  0.8547451984962963  0.3783254241070276
  0.8417581370856693  0.1455094924335500  0.6533484830064835
  0.9783958070495954  0.4026337354628989  0.8489476768821138
  0.6724425025434948  0.6325034722749385  0.6162296506672791
  0.4534345713857886  0.9806534349732221  0.5211139003156321
  0.2860221714537655  0.6107430066455122  0.5982652576092974
  0.4793088525755760  0.0883532448920649  0.6418640832589878
  0.9113804436738661  0.2224955733732560  0.5224040602367197
  0.7407415024896418  0.0063534551042789  0.3336837724983729
  0.8797498863881585  0.5773280151072202  0.7502547399401456
  0.9078602010362481  0.5814489509118212  0.6500441577886171
  0.2583331876696583  0.3830084086195900  0.4817557454725540
  0.7663547243079587  0.8288741674227160  0.6412306470527984
  0.6582288105201590  0.5195919026902081  0.7805457781010019
  0.6308734782489578  0.0271855832647079  0.4518285865669132
  0.0933515588767921  0.9817310388698112  0.4920425049170268
  0.7152022734074034  0.2418656837791769  0.3748036810761438
  0.2589399322610195  0.6828335321343413  0.9052780630774835
  0.7091700761031647  0.9455495398107301  0.8885582866811663
  0.2540637354171060  0.5997063204473704  0.8025029731144591
  0.8343787765196579  0.0409454040850885  0.5162555434296719
  0.3775590523611866  0.3251860111782912  0.7284038873903228
  0.4536210363362817  0.5181323939838183  0.7320450023663790
  0.5261160435485858  0.1555148167838657  0.7334367382787516
  0.4809345879173466  0.7311443531870961  0.8746951914173694
  0.1515533113338628  0.1537017354722938  0.8887254455677431
  1.0241434764175945  0.4219173034176960  0.6002085048165188
  0.0854125883761869  0.1463560479404839  0.6830011224288830
  0.1221982857620824  0.5256499089216931  0.5213596084735470
  0.4273970970294554  0.4249473680428586  0.8803096843793293
  0.8052782872037596  0.2959667820614574  0.6060179370459293
  0.3680139461759777  0.2617384122125553  0.6256261779746922
  1.0149681372735975  0.6711335498786004  0.4635446386850162
  0.4934718552997059  0.6820226191396674  0.5301564179137129
  0.5095512715497580  0.8325775754304100  0.7822546953801899
  0.1412224448655393  0.8640359732541274  0.8774470959831625
  0.4328252677221784  0.7329497383212789  0.6960468336059139
  0.9599774777202028  0.7405100111604533  0.7901123792686372
  0.1468080864922038  0.2571877970502644  0.5450688949648521
  0.0758002380514033  0.7417264740992247  0.3755392831924118
  0.5564194874346599  0.3711296124763740  0.5955230299179847
  0.3590395667877494  0.8169507413841668  0.4692565892156479
  0.8837932368392902  0.8406966118920846  0.3482431661623699
  0.7363828428056765  0.0061885093888535  0.6002261379985417
  0.2608724894276079  1.0097018295120361  0.9211921039144181
  0.8734647235357554  0.0944722834656882  0.8372558978118193
  1.1040928268945736  0.7330794830287413  0.6250088690542154
  0.2454667371619115  0.8304474308664342  0.6845022150344054
  0.7916093186892618  0.5864533857004088  0.4260642670168488
  0.8893063693807861  0.4622627014915744  0.3813028499325484
  0.1077656259552746  0.1109457489900930  0.7804028821526667
  0.9348338607026926  0.2765863210283263  0.4088752909456850
  0.2486389739958288  0.0683424148121213  0.5504678102788867
  0.2399338796129791  0.0102132531617687  0.6527798057453560
  0.9013388273408913  0.8218318824650322  0.8795274630158220
  0.2491974040232548  0.3948925612927247  0.3369861556120811
