combine
1.000
11.0985002518  0.0000000000000000  0.0000000000000000
0.0000000000000000  14.4173002243  0.0000000000000000
0.0000000000000000  0.0000000000000000  26.7964000702
Pt  H  C  O  
96  170  6  81  
Direct
  0.0000000000000000  0.0000000000000000  0.0018699899937576
  0.1249999521128992  0.1666699702868031  0.0018699899937576
  0.2499999943280624  0.0000000000000000  0.0018699899937576
  0.3749999464409617  0.1666699702868031  0.0018699899937576
  0.4999999886561249  0.0000000000000000  0.0018699899937576
  0.6250000308712881  0.1666699702868031  0.0018699899937576
  0.7499999829841874  0.0000000000000000  0.0018699899937576
  0.8749999350970866  0.1666699702868031  0.0018699899937576
  0.0000000000000000  0.3333300219343480  0.0018699899937576
  0.1249999521128992  0.4999999922211510  0.0018699899937576
  0.2499999943280624  0.3333300219343480  0.0018699899937576
  0.3749999464409617  0.4999999922211510  0.0018699899937576
  0.4999999886561249  0.3333300219343480  0.0018699899937576
  0.6250000308712881  0.4999999922211510  0.0018699899937576
  0.7499999829841874  0.3333300219343480  0.0018699899937576
  0.8749999350970866  0.4999999922211510  0.0018699899937576
  0.0000000000000000  0.6666699625079541  0.0018699899937576
  0.1249999521128992  0.8333300141554991  0.0018699899937576
  0.2499999943280624  0.6666699625079541  0.0018699899937576
  0.3749999464409617  0.8333300141554991  0.0018699899937576
  0.4999999886561249  0.6666699625079541  0.0018699899937576
  0.6250000308712881  0.8333300141554991  0.0018699899937576
  0.7499999829841874  0.6666699625079541  0.0018699899937576
  0.8749999350970866  0.8333300141554991  0.0018699899937576
  0.0000000000000000  0.2222199683821562  0.0864100026098289
  0.1249999521128992  0.0555599860957249  0.0864100026098289
  0.2499999943280624  0.2222199683821562  0.0864100026098289
  0.3749999464409617  0.0555599860957249  0.0864100026098289
  0.4999999886561249  0.2222199683821562  0.0864100026098289
  0.6250000308712881  0.0555599860957249  0.0864100026098289
  0.7499999829841874  0.2222199683821562  0.0864100026098289
  0.8749999350970866  0.0555599860957249  0.0864100026098289
  0.0000000000000000  0.5555599783168760  0.0864100026098289
  0.1249999521128992  0.3888900080300730  0.0864100026098289
  0.2499999943280624  0.5555599783168760  0.0864100026098289
  0.3749999464409617  0.3888900080300730  0.0864100026098289
  0.4999999886561249  0.5555599783168760  0.0864100026098289
  0.6250000308712881  0.3888900080300730  0.0864100026098289
  0.7499999829841874  0.5555599783168760  0.0864100026098289
  0.8749999350970866  0.3888900080300730  0.0864100026098289
  0.0000000000000000  0.8888900002512240  0.0864100026098289
  0.1249999521128992  0.7222199606033073  0.0864100026098289
  0.2499999943280624  0.8888900002512240  0.0864100026098289
  0.3749999464409617  0.7222199606033073  0.0864100026098289
  0.4999999886561249  0.8888900002512240  0.0864100026098289
  0.6250000308712881  0.7222199606033073  0.0864100026098289
  0.7499999829841874  0.8888900002512240  0.0864100026098289
  0.8749999350970866  0.7222199606033073  0.0864100026098289
  0.2430636846237387  0.4513636803811481  0.1741705491585895
  0.4958079927337520  0.4572324474237730  0.1688749037312841
  0.1227729696883152  0.6145465486226415  0.1696400983076557
  0.8634824382641908  0.2817562190633531  0.1715508208288103
  -0.0042599243075507  0.4471899669352299  0.1680758965197218
  -0.0039837698605115  0.1182344628869490  0.1729731993908615
  0.1171539171420141  0.9566507288065894  0.1717676162634501
  0.3770949669998186  0.9543206131485013  0.1739592850788934
  0.8767571778287645  0.6183799398290513  0.1728744919341483
  0.4962040129347055  0.1195222774507816  0.1713744779212697
  0.2501404888241316  0.1144345643589526  0.1714442236257339
  0.2464799118922699  0.7909733429619054  0.1721242678425787
  0.7473687749797308  0.1154874631100249  0.1759497499794124
  0.6195710387072138  0.2910787891637843  0.1713854488128533
  0.3753457614171227  0.6240055822682159  0.1706675693495819
  -0.0039363221073870  0.7796595616531778  0.1671565789533523
  0.7474279556965031  0.7895102405105571  0.1750995546904812
  0.6295862668531943  0.9572309449822850  0.1724022546161933
  0.8792213466515353  0.9433517286528135  0.1745982035849296
  0.7420634811144221  0.4551845923787461  0.1727228502364070
  0.3706421012904733  0.2867958677749431  0.1698980615893611
  0.1294788718653169  0.2763395976165460  0.1718894798754071
  0.5034687474006910  0.7895465774107984  0.1750738602353232
  0.6264751646396858  0.6211756855146451  0.1705609717621255
  0.3769366840282329  0.5126969814668535  0.2585443027813509
  0.1123721820430404  0.5213723244335755  0.2549416728255696
  -0.0028775679303895  0.0206813534892922  0.2635670175246524
  0.8648138317916724  0.1858556394201813  0.2664424088719284
  0.7500839781978514  0.3529957745779756  0.2572853179881839
  -0.0103891368999428  0.6934941910724791  0.2534896842861364
  0.6170715073677879  0.8569589251443830  0.2611096058563876
  0.2424524919719298  0.6832371091154320  0.2537235795923559
  0.7430319226386053  0.6847842796642150  0.2583328537029240
  -0.0097002887649202  0.3512829240986343  0.2580160575669594
  0.1115056493060213  0.8543068407523583  0.2569884150766302
  0.6162484202755910  0.1913031264030511  0.2642783933195376
  0.2426872301924905  0.0188307938501837  0.2584796637740416
  0.3645252982486399  0.1920896334413722  0.2595218537483232
  0.8722437755344431  0.5138926837780909  0.2565217337587203
  0.4801879599214913  0.0225800927313218  0.2598243203325944
  0.3700535231896673  0.8473594676699016  0.2578452548998844
  0.4997420560404514  0.3518881895203317  0.2527337110417106
  0.1240523136156802  0.1855667706073518  0.2557660320395734
  0.7390567478763356  0.0322346907513722  0.2684041527764188
  0.8671782305576898  0.8563770843857463  0.2608200664040853
  0.2312834314964033  0.3541384655217511  0.2588974511511024
  0.6272408672127540  0.5197306655354617  0.2579969421074702
  0.5028690955874723  0.6883937814010442  0.2612083028004947
  0.6795580257410720  0.7233181702163189  0.3567987667355588
  0.7375886258120632  0.7095061279891364  0.4105123396792865
  0.2243344969691916  0.9458065806534915  0.4055942365999644
  0.1399300847110515  -0.0049385353979099  0.4430379131711252
  0.8229407746887879  0.8300485625339077  0.7581264890388082
  0.6819016522590587  0.8380663029292398  0.7593649807695280
  0.6182940256172963  0.5177049998528690  0.8357763618332499
  0.6826902673963680  0.5106408510652659  0.8914639237889878
  0.4601419963000626  0.0569168295265795  0.7683656228060759
  0.3219394117615584  1.0483811657833371  0.7820049551097630
  0.1605390391292760  0.5385246573081589  0.9149917213307601
  0.0655547635620409  0.4829481643216640  0.8855769578351009
  0.1976290110859138  0.7149637742735204  0.7757376812162534
  0.1969677284681287  0.8083996339242412  0.7453017634525464
  0.6344655067839424  0.2063809088878474  0.4180687225915263
  0.5039782796412370  0.1608081629313900  0.4166210463440314
  0.6976314814196867  0.2894033693955751  0.8488623992666873
  0.8086569780673220  0.3604622457775255  0.8389939659544798
  0.7566620377593817  0.2191003051997116  0.7771272130974933
  0.8072047589174971  0.1832404728832140  0.7231779592345579
  0.9649172619663768  0.1717646619806195  0.8628516699455081
  0.9688310258907371  0.2047259503499247  0.9205689843328230
  0.5778774023237798  0.5645527714808469  0.6142251049126524
  0.4425772685641342  0.5342184941129610  0.6100069006873130
  0.5535339254962525  0.3500947565684106  0.5153871804503523
  0.5753518933483257  0.3093616745652915  0.4623148662673156
  0.5766304706856284  0.8474753460988729  0.4017550626799419
  0.5866368186047527  0.9370312781952158  0.4280429531448771
  0.4989923004057970  0.7506929516289160  0.5797580974310348
  0.5948933504803220  0.8044466459366606  0.6112967864073892
  0.3897942009235320  0.1110121888980576  0.3506187693117942
  0.3047847997346657  0.0843095095121401  0.3933948097499546
  0.7391686220910340  0.5497402376515204  0.4642968940718290
  0.6476815990731877  0.4713411795674761  0.4936357395189940
  0.1132100002697411  0.2539526570396967  0.6720844392873547
  0.2254891643935512  0.3182669971778844  0.6872340126679767
  0.9693681159537872  0.4711852334634885  0.7556316542466397
  0.0444291457685941  0.3878465747058057  0.7327706482236234
  1.0689693828655682  0.0098448851582330  0.3706121485529036
  0.9774765288076236  0.0928512043706849  0.3636796547211449
  0.6897968212829806  0.1916312790617594  0.9206367372546798
  0.5797282646235458  0.1475872118493885  0.8858758428375273
  0.2307667390722111  0.4013375561984551  0.9060668889288898
  0.3692371968848109  0.3582242025032642  0.9094275676231951
  0.4623348759547757  1.0385857225586776  0.8428839338019117
  0.4598534972391665  1.0112701817033771  0.8983705901813073
  0.2000738521981713  0.7562441390811345  0.5095551169757591
  0.0852801636731500  0.7198405837667078  0.4859111785198398
  0.2134418689962911  0.3328776290176071  0.3740086486671565
  0.2579482415415266  0.2314507261266397  0.3915753864590545
  0.3802044544816433  0.8797436531648435  0.3898994319397031
  0.3082719844102459  0.8233323677683443  0.4297317881667996
  0.9427694659558181  0.1414526934843668  0.6670284211601037
  0.8542474138307430  0.2040265874634527  0.6299485007828519
  0.9841807748058999  0.3569117741771822  0.8735671055580447
  0.9885982755211022  0.4050932163329883  0.8226401334451889
  0.7821741833354543  0.5931218548592849  0.6111096413772038
  0.7163802782281791  0.6004346721385074  0.5604006150475391
  0.4810884890716690  0.9133924172782755  0.5572142273582855
  0.5184166319288815  0.9651024761659613  0.5075102170206738
  0.2420382152412287  0.6099211986082468  0.5882208300110051
  0.2471227452605751  0.5341384422251564  0.5459184526158933
  0.5107338734330955  0.0827731420886008  0.6888094125571188
  0.5753675903700897  0.0500599530405521  0.6357810788340287
  0.9466998899329608  0.1447393480426269  0.5254068025002031
  1.0487482572262186  0.2231857293695380  0.5347006710067028
  0.8023103121753626  -0.0468525210053879  0.3468627460162647
  0.6589707669298698  0.9862225514479328  0.3605882670129832
  0.8961003509899473  0.6183150514529028  0.7680274347033360
  0.7991195234204355  0.5431082344114934  0.7540789537088436
  0.9228219512036250  0.5710524017820914  0.6851392862736495
  0.9789860862000542  0.5193244229859635  0.6393077255646503
  0.2809860829794751  0.3280267911345114  0.4557075119198598
  0.3918851972990320  0.3775680994368901  0.4772293539654020
  0.7383605688138765  0.8342360457076466  0.6752872270900134
  0.7606224685836159  0.7541973264504130  0.6369199923642063
  0.5566353987240804  0.4769218633881813  0.7559038220408544
  0.6506241481977599  0.4152243896613908  0.7834625940238586
  0.7078600564725718  0.0371739117284021  0.4953742787958355
  0.5993450926057490  0.0869572431866917  0.4678702937206306
  0.1247038448258388  -0.0074621832261403  0.5252887658612623
  0.0859427110203744  0.8922112497261635  0.5116993293456847
  0.8494789695815826  0.2313978860741924  0.3925403042514543
  0.7430920319853516  0.2495285727654097  0.3496235565395511
  0.3372907702455453  0.6989043654245768  0.9151349969233749
  0.2055062258281328  0.7435301495166354  0.9094644551154482
  0.6901482449809138  0.9934200794237393  0.8634577942255400
  0.7629497971067478  0.9932202372996818  0.9147857882507365
  0.1877054676790344  0.5501983441830656  0.8089631963663322
  0.1523466832129662  0.5092630441325560  0.7605593796408745
  0.9080433241388196  0.0006352223687875  0.5197005766751138
  0.8266044204316805  0.0429646106596268  0.5615909641211623
  0.3919609059426268  0.2714558581990006  0.6679838952287446
  0.4152699005843167  0.3581390979843244  0.7085278658947225
  0.3585960563684744  0.5334787967539487  0.7388421758644175
  0.4492111144468749  0.5177281744066899  0.6907125064080243
  0.5085286350455007  0.2116732714670351  0.7319471884289421
  0.6310124506655012  0.1529193060143161  0.7402544592943133
  0.5244162847728954  0.6421452327597278  0.8921218068312552
  0.5438208655283061  0.7424870395954969  0.9098669867828266
  0.2862705797014973  0.2149525632806517  0.8869893051952259
  0.1458692072955925  0.1811510078910634  0.8812713532502408
  0.9448639694718433  0.3920717577256702  0.6001884108487250
  0.0756862496411409  0.3954618156102679  0.6199145780023435
  0.1094615693055437  0.1353913498874075  0.7231057980451842
  0.1409893683559830  0.0831394736845190  0.6727056879945090
  0.0999745243164765  0.4474634822840574  0.5340339672646629
  0.2152236681990071  0.4306049702243350  0.5006524432406666
  0.5162980378155745  0.4247202626660501  0.8745703096052143
  0.5380657185038565  0.3234621497331289  0.8934457544065660
  0.8503733384850198  0.2789325644978898  0.5545128534158766
  0.7376138771787921  0.3169328888218982  0.5833495276622555
  0.3241033983322759  0.2141174005724697  0.5961461628670470
  0.4374331101909575  0.1626560314841373  0.6260785913275396
  0.0985392939215034  0.5671694684777239  0.4617067509511795
  0.1021572732060007  0.6234693145912087  0.4132671485381859
  0.5537228429132395  0.6251530220969375  0.5180321781893888
  0.4247834711663307  0.6275160307511223  0.5422575702980071
  0.4617646483063171  0.9049726413346908  0.7928670568225855
  0.4673283249472205  0.7978748137263343  0.8048547664947230
  0.0551144716423099  0.8463271632045402  0.8787639137500102
  0.1577074402477151  0.8374878344247175  0.8391217657929294
  0.4559697656067768  0.7557808520234964  0.6680877056321088
  0.4433576636628860  0.8023324072216602  0.7213955340440520
  0.9110247209356197  0.7616237905063904  0.8183265035621754
  1.0071061847106062  0.7497615749778723  0.7754088678727850
  0.2472435027295658  0.2546405204569602  0.5328129305838296
  0.2255258857604705  0.1441330033689364  0.5498471910480783
  0.1070920738959513  0.7534964003725216  0.3247790473720542
  0.1652184690812262  0.7899127823117063  0.3714120668943169
  0.5686299350469867  0.4132308875803591  0.5928567825521881
  0.5063127897743334  0.3139957269301991  0.5917178021473560
  0.3891163047997940  0.8381439393994933  0.4939053429053099
  0.3976977346722269  0.7284876917730928  0.4901838427844447
  0.8121751929895288  0.8092322862664436  0.3636936705851795
  0.9541196492726649  0.8212109175298004  0.3515186012234253
  0.7656056350065775  -0.0296552559528016  0.6321566940269067
  0.7684855367207587  0.0780289367078516  0.6389243229108206
  0.2630467655777650  0.0551438786410235  0.9003711991459278
  0.2081723282229317  0.9451398550009454  0.9002823374296615
  0.8752822845973708  0.0509735993540137  0.8425754483009361
  0.8775016636342822  0.1056309562752372  0.7946053374975259
  1.0671702361838566  0.6462209636514907  0.6202587476399007
  1.1030401594588897  0.7072411244037244  0.5710134194972033
  0.1546499527557005  0.7996174431444034  0.6614659718008795
  0.2818010105818358  0.7908245973461080  0.6892002704661127
  0.8223908941408273  0.5720139670602170  0.3969556503124940
  0.9114921987102999  0.6187167416105537  0.4357645756485695
  0.8655729182636157  0.4391874936146328  0.3421367194877671
  0.8194606878641075  0.3818405995195462  0.3838142786663969
  0.1139426234995042  0.0873528748730172  0.7988135111143023
  0.2119149183439044  0.1517617643913795  0.8136131419737113
  1.0690941277381716  0.2303175485312627  0.4111633936624446
  0.9638485469840912  0.2033089437757281  0.4497038613332682
  0.3186115541896302  0.0011864555314711  0.5425313065081243
  0.2409608129230137  0.0328659873643580  0.5897989294008193
  0.3370359645929039  0.0319114173002066  0.6460927907310043
  0.2474356127040332  0.9545205754545605  0.6682782946137117
  0.8786298517512279  0.7592284820670341  0.9148827854254761
  0.8260645545971929  0.8421917375650361  0.8879570430828549
  0.6105842823494055  0.4442813683455077  0.3964804358371675
  0.5970421582344266  0.6022173555258368  0.4083464691799674
  0.2402869296387576  0.6144074289352662  0.3430562619089673
  0.4558987597066894  0.6663755925750282  0.3428454110414926
  0.2674676819256330  0.5535651320105249  0.3990087007280675
  0.3933075820665090  0.6888300323774510  0.4012993958154372
  0.3976443934291248  0.4114337624115061  0.3988577588370149
  0.4843430260704082  0.5387348247773008  0.4354827994666861
  0.5966750757451200  0.4975765006688902  0.3333909624500289
  0.4450946470807017  0.3564912596907195  0.3392239875575255
  0.4315276401442844  0.4211159122473487  0.3617604411601714
  0.5489870539681092  0.4833329295699211  0.3711144665943099
  0.3350447225783429  0.4796201712401903  0.3339953804262335
  0.5105466290619776  0.5709526449151590  0.4010130463513339
  0.3083235673707371  0.5730055713951191  0.3641965905656506
  0.4173025575278835  0.6295815776452494  0.3775880240029750
  0.6918171139613867  0.7572170470931601  0.3887028639299704
  0.1758227155406442  0.0031626282445827  0.4089118175163227
  0.7535527074969977  0.8647632659883335  0.7413607016709886
  0.6089650265497685  0.5247812723042151  0.8718467472159080
  0.3988806153770204  1.0136675102574253  0.7825548839756328
  0.1583978768586218  0.4966879189787894  0.8857147523817686
  0.1859776829545271  0.7807341772926502  0.7817823556417608
  0.5676818916482137  0.1829862946568480  0.4387670326983683
  0.7353480635076234  0.3263181950231201  0.8216500937111015
  0.7663667734404509  0.1659722541996368  0.7536931973284000
  1.0059285292703695  0.2141307151041097  0.8881086276647152
  0.5205318108780547  0.5154056849961162  0.6249361405162441
  0.5495934893104797  0.3685242265431125  0.4800987602923178
  0.5485446554378030  0.9104340868116523  0.3956763757267214
  0.5081788964491196  0.7984688658072894  0.6077118403046167
  0.3629297785749679  0.1290897407659667  0.3830742730257865
  0.6931510351637220  0.5307653819958886  0.4957853890334472
  0.1408919382550263  0.3207720121555935  0.6746976584442770
  0.0353331990902465  0.4251232144260620  0.7628492030850407
  0.9986142627876674  0.0312964673815626  0.3478536828745903
  0.6418026997606956  0.2005206283925023  0.8887966408400561
  0.2780980815402895  0.3432879982868153  0.9210367851294659
  0.4948732402658844  1.0592243820005112  0.8759476021371706
  0.1102213698649600  0.7576032910440638  0.5146658519864779
  0.2113773728229200  0.2860114731709562  0.4027866066271730
  0.2959923424669215  0.8524404802145755  0.3966546299187519
  0.8570005046724578  0.1601587249052457  0.6611613514198351
  0.9440076397980697  0.4100762780354082  0.8568885828038998
  0.6989751216739256  0.6073912698259826  0.5958376971672386
  0.4501112028978689  0.9294660327815034  0.5240524171572122
  0.2974918402569315  0.5733130902461538  0.5682829477021740
  0.4955869081417503  0.0572855460489032  0.6531773033745933
  0.9637070214207840  0.2125108536365211  0.5221747627048160
  0.7402838482854914  0.0051729910204891  0.3485457324092822
  0.8830919882179967  0.5574839531782199  0.7558872357233328
  0.9372980383374648  0.5793035633483531  0.6494414760307059
  0.3107658735458984  0.3531007836765202  0.4882084937949785
  0.7427077551638678  0.8233487635218018  0.6374871357663120
  0.6325850795166083  0.4794063772044106  0.7765780995799516
  0.6351547702273306  0.0258122080979325  0.4761218771393264
  0.0659803991247588  0.9587740766472900  0.5067398048143357
  0.7615500676885789  0.2555900268546231  0.3868037639662931
  0.2508627788108980  0.6881827422499782  0.9200958012908179
  0.7710647783615703  0.9783423877326408  0.8778759322809447
  0.1990661353493848  0.5621129105531600  0.7730861272271407
  0.8469031820921546  0.0504154770096903  0.5264712548529548
  0.3831451550951975  0.2938319740168748  0.7016145620585846
  0.4188861745753444  0.4945083990054842  0.7221324030058629
  0.5400406353306995  0.1488008255584593  0.7399420251397976
  0.4895607178923828  0.7053758908522531  0.8899959202177266
  0.2352843793805824  0.1658430404376274  0.8743378101058905
  1.0182499578235491  0.4326774304932582  0.6005615918272820
  0.0784233605489929  0.1257663031629097  0.6874300643385831
  0.1500977852056924  0.4816824039909440  0.5083434153100526
  0.4790499608483326  0.3616372218643416  0.8768081521490972
  0.8293388366150813  0.3067463757705526  0.5871578528601423
  0.4051484326335653  0.2233554637693167  0.6110177269075904
  1.0680838667077968  0.6225375392386113  0.4465920196947814
  0.4918404193228438  0.6693765788711363  0.5350977350217245
  0.5146640015594544  0.8506418480437414  0.7961608931986948
  0.1425268527469242  0.8559616308468164  0.8739961689199097
  0.4095931678753381  0.7524487140467183  0.6983289695137147
  0.9221038380424609  0.7395125094384762  0.7832951889400321
  0.2021500756136965  0.2137608237154979  0.5550887302634970
  0.0909322638918102  0.7644849742341506  0.3606159151783360
  0.5787448773052249  0.3459652240225285  0.5766964543787937
  0.3424651003709769  0.7795109985542149  0.4837221214768666
  0.8737316041441980  0.8462583108476802  0.3443724886113452
  0.7363040992204918  0.0267297028087456  0.6160181248621280
  0.2658651688205749  0.9960523574514962  0.9174247817466816
  0.9340960822809034  0.0806706583760878  0.8209215429449965
  1.1201156373253036  0.6919366198038894  0.6064795998725624
  0.2105986487066955  0.8334485669894839  0.6841572913030167
  0.8238040927932720  0.6173130459473468  0.4249637941315827
  0.8491416853796570  0.4448993035248685  0.3779319539329603
  0.1898862415269310  0.1130369304339798  0.7852405658922882
  0.9862433176973404  0.1936789702411552  0.4142770292210055
  0.2495226636906062  0.0398926673130250  0.5524470915390953
  0.2525248997625112  0.0161302069029565  0.6501847372541472
  0.8869557280231155  0.7980600826434300  0.8844716083656795
  0.2242412924121316  0.4283653984114669  0.3272051791819124
