combine
1.000
11.0985002518  0.0000000000000000  0.0000000000000000
0.0000000000000000  14.4173002243  0.0000000000000000
0.0000000000000000  0.0000000000000000  26.7964000702
Pt  H  C  O  
96  170  6  81  
Direct
  0.0000000000000000  0.0000000000000000  0.0018699899937576
  0.1249999521128992  0.1666699702868031  0.0018699899937576
  0.2499999943280624  0.0000000000000000  0.0018699899937576
  0.3749999464409617  0.1666699702868031  0.0018699899937576
  0.4999999886561249  0.0000000000000000  0.0018699899937576
  0.6250000308712881  0.1666699702868031  0.0018699899937576
  0.7499999829841874  0.0000000000000000  0.0018699899937576
  0.8749999350970866  0.1666699702868031  0.0018699899937576
  0.0000000000000000  0.3333300219343480  0.0018699899937576
  0.1249999521128992  0.4999999922211510  0.0018699899937576
  0.2499999943280624  0.3333300219343480  0.0018699899937576
  0.3749999464409617  0.4999999922211510  0.0018699899937576
  0.4999999886561249  0.3333300219343480  0.0018699899937576
  0.6250000308712881  0.4999999922211510  0.0018699899937576
  0.7499999829841874  0.3333300219343480  0.0018699899937576
  0.8749999350970866  0.4999999922211510  0.0018699899937576
  0.0000000000000000  0.6666699625079541  0.0018699899937576
  0.1249999521128992  0.8333300141554991  0.0018699899937576
  0.2499999943280624  0.6666699625079541  0.0018699899937576
  0.3749999464409617  0.8333300141554991  0.0018699899937576
  0.4999999886561249  0.6666699625079541  0.0018699899937576
  0.6250000308712881  0.8333300141554991  0.0018699899937576
  0.7499999829841874  0.6666699625079541  0.0018699899937576
  0.8749999350970866  0.8333300141554991  0.0018699899937576
  0.0000000000000000  0.2222199683821562  0.0864100026098289
  0.1249999521128992  0.0555599860957249  0.0864100026098289
  0.2499999943280624  0.2222199683821562  0.0864100026098289
  0.3749999464409617  0.0555599860957249  0.0864100026098289
  0.4999999886561249  0.2222199683821562  0.0864100026098289
  0.6250000308712881  0.0555599860957249  0.0864100026098289
  0.7499999829841874  0.2222199683821562  0.0864100026098289
  0.8749999350970866  0.0555599860957249  0.0864100026098289
  0.0000000000000000  0.5555599783168760  0.0864100026098289
  0.1249999521128992  0.3888900080300730  0.0864100026098289
  0.2499999943280624  0.5555599783168760  0.0864100026098289
  0.3749999464409617  0.3888900080300730  0.0864100026098289
  0.4999999886561249  0.5555599783168760  0.0864100026098289
  0.6250000308712881  0.3888900080300730  0.0864100026098289
  0.7499999829841874  0.5555599783168760  0.0864100026098289
  0.8749999350970866  0.3888900080300730  0.0864100026098289
  0.0000000000000000  0.8888900002512240  0.0864100026098289
  0.1249999521128992  0.7222199606033073  0.0864100026098289
  0.2499999943280624  0.8888900002512240  0.0864100026098289
  0.3749999464409617  0.7222199606033073  0.0864100026098289
  0.4999999886561249  0.8888900002512240  0.0864100026098289
  0.6250000308712881  0.7222199606033073  0.0864100026098289
  0.7499999829841874  0.8888900002512240  0.0864100026098289
  0.8749999350970866  0.7222199606033073  0.0864100026098289
  0.2530297619756819  0.4477104310500961  0.1714768273224137
  0.5020530839647730  0.4502835288369809  0.1707192461045330
  0.1192159738776788  0.6129156156855325  0.1733637065922985
  0.8764884540343475  0.2805282192558607  0.1669805711766492
  0.0010596564520592  0.4513913065312458  0.1705067428919716
  -0.0039775044554187  0.1158490838516956  0.1716887766769957
  0.1277036489835763  0.9439916201135219  0.1718650568708884
  0.3741089113122833  0.9479049475827597  0.1689945233141983
  0.8699820735359295  0.6192425442561296  0.1706277038080464
  0.4935673951542758  0.1177361436046821  0.1722328038172761
  0.2492387298501318  0.1156467999043110  0.1701538550684121
  0.2336022276324692  0.7825827584198628  0.1698072102028457
  0.7539900829792582  0.1162064703054586  0.1720187219896809
  0.6220065961236868  0.2853681092293240  0.1721579765458983
  0.3821498745032807  0.6106777942142406  0.1781707636246814
  -0.0130351992807800  0.7804786148334741  0.1750311619214825
  0.7430982355082094  0.7837151794519560  0.1728110612122772
  0.6270327746193762  0.9518932672477052  0.1709238950120592
  0.8791020816724868  0.9457243957727187  0.1695684005499357
  0.7559488910710518  0.4475576392329231  0.1717810350920635
  0.3744067780622943  0.2830676891656494  0.1701298102788765
  0.1247190885521227  0.2852664307404812  0.1720164030065400
  0.4918635224353530  0.7797596391210500  0.1706771210841183
  0.6332543696036896  0.6119213331168835  0.1720459780613206
  0.3806210586889776  0.5076799754550007  0.2617553127295001
  0.1172645905998807  0.5161836586614695  0.2590153277909392
  -0.0036207890785498  0.0093124649976913  0.2606297929275496
  0.8699516825288252  0.1825521816257930  0.2571217883241798
  0.7505603852780911  0.3448461670389744  0.2573327248001688
  0.0013445293563497  0.6747237768694179  0.2571593427493027
  0.6222722127865798  0.8533164319394841  0.2569303127981181
  0.2392875729645798  0.6773533942048534  0.2603236233458704
  0.7563106379205281  0.6766472197934447  0.2590802311845086
  0.0020350575832385  0.3461755954341530  0.2572245274903658
  0.1185272245758296  0.8403450453490324  0.2611218334466289
  0.6279242665124719  0.1819709274471587  0.2583427364408779
  0.2454723837086141  0.0085054307736006  0.2615971222752266
  0.3759929828467781  0.1804584627650924  0.2558704246815951
  0.8722402237122053  0.5080800715347285  0.2584760613349174
  0.5037517085241536  0.0104107108588208  0.2580292081692447
  0.3684024054634657  0.8355332150464997  0.2559271543839439
  0.5073116260718955  0.3438476727733325  0.2563230193386471
  0.1310972308320690  0.1751187106130047  0.2575578539549879
  0.7516511333634495  0.0165195501928007  0.2643184585632714
  0.8782106372092230  0.8453320416438600  0.2581640255473454
  0.2482239820964275  0.3437710156820044  0.2635542225372995
  0.6301573494550056  0.5109485895621393  0.2603322555165871
  0.4990069565662069  0.6724996106870452  0.2572945129994300
  0.6424780273211724  0.7636795433130112  0.3766184019331473
  0.7344822577877521  0.6731338410739930  0.3911038626884398
  0.1822109652673135  0.9298374155797180  0.3754663735592192
  0.0973894036380906  -0.0644073319313211  0.4235546470371566
  0.8278355446908149  0.7855722343848118  0.7526812275477966
  0.6886873581374531  0.8166627532147173  0.7713618574304906
  0.6683234945637828  0.5700737690644194  0.8620123918058669
  0.6958973039936079  0.6159317320196230  0.9112992302184918
  0.4229392809031751  0.0163660725398715  0.7893938900854051
  0.2905830242313100  0.9873364790037266  0.7945183262686336
  0.1776562127464221  0.5888339579064419  0.9001656223488369
  0.0718470138405120  0.5055208607583715  0.8988376022488692
  0.2025651150961034  0.6746737720773427  0.7998545257889199
  0.2239142549910700  0.7549204863165319  0.7553684012282672
  0.5996185354251522  0.1320641600492470  0.3705981703319852
  0.4708299286340518  0.0839130221940522  0.3734851336926358
  0.7136775845651200  0.2490255873806858  0.8480177879442444
  0.8505397047379467  0.2786906718241059  0.8365983380741739
  0.7366031546626414  0.1949989784399110  0.7711133592746727
  0.7578188287409305  0.1219788228614338  0.7278991027452002
  0.9470479892087503  0.1470640620513918  0.8685232348871366
  0.9591189200517056  0.1993049194159729  0.9201199310731136
  0.6067489268388179  0.5063399999880656  0.6549787297592398
  0.4683734778270539  0.5023355483499780  0.6444207425983216
  0.6111880233817953  0.3591332771286167  0.5430041222507915
  0.6825155106223898  0.3461709169854177  0.4904092781968200
  0.5178001169543569  0.8671732993828961  0.3536193377496948
  0.5703565673274962  0.8858962362435042  0.4110764390269750
  0.4904841300983102  0.7741897878208285  0.5734947198594091
  0.5499914294735467  0.8193820752576836  0.6111950045377033
  0.2576335877305818  0.1131914583390202  0.3411163864979486
  0.2445702039300106  0.0670848893726883  0.3937088304795286
  0.7599477024593564  0.5614993815732272  0.5072927053890840
  0.6567604520635868  0.4954644730544082  0.5260416838482734
  0.1369110387913502  0.2347146320568697  0.7156922124038455
  0.2233985222911431  0.3147878850057277  0.7278883243123045
  0.9880123175490830  0.4872036382762531  0.7790901630333877
  0.0615145960544781  0.3966842748381262  0.7664116380259252
  0.9970952533704027  0.0809448787806360  0.3889375086876068
  1.0080435711019173  0.1558483066068699  0.3480099525932477
  0.5971477850915158  0.2321607509538085  0.9155626891421048
  0.5853186429352404  0.1359981613475209  0.8815577785566212
  0.2557784098477268  0.4115660235471095  0.9133059509294502
  0.3128894873374264  0.3190956118431921  0.9014019858571144
  0.4501887156500861  0.9896839502482357  0.8591666407422826
  0.4911808168599964  0.9894586064980568  0.9159132897517162
  0.1687284802823957  0.7469826085572057  0.5195486726660179
  0.0624894773226246  0.6688559509253196  0.5200191936489473
  0.2140937879435225  0.3210376627725894  0.3788868686428827
  0.2296111751213142  0.2234015628370797  0.4017349197204926
  0.2976509368069103  0.7772553968608279  0.3631984813371746
  0.2784251079508544  0.7695429626068344  0.4216520409607271
  0.9217876629629108  0.0958688803587780  0.6792734931488931
  0.8382815254872921  0.1588004480229349  0.6450525493281676
  0.9187654202869636  0.4310782142085658  0.9012846120124277
  0.9500814988214152  0.4580253652601327  0.8453514314667765
  0.7974320913462719  0.5363963206762921  0.6410458450948106
  0.7362954773438571  0.5650190964096062  0.5900355353211441
  0.4401082113781820  0.9113167821639034  0.5439416537898858
  0.4672959770180540  0.9625168159091839  0.4916520343511078
  0.2952189668391101  0.6001923667244805  0.6219929280625791
  0.2925860930600371  0.4956419571089947  0.5993098422336003
  0.5137642883753797  0.0819679272758834  0.6753548966461945
  0.5660404900546023  0.0214602319565016  0.6342600265287481
  0.8960563159772058  0.1333875247571444  0.5245343068388922
  1.0037739907599863  0.2164940150402913  0.5284998260475031
  0.8288885182309205  0.0435313046781248  0.3600888391657746
  0.8176600988253535  0.9348318241152797  0.3485710216682208
  0.9000311592892872  0.6154853872532740  0.7755909799507961
  0.8011416315783697  0.5289992654966925  0.7795816856582737
  0.9551643725268830  0.5495166875519970  0.6824310581344263
  1.0105598570204106  0.4777571539497042  0.6470020532004469
  0.3004389098661515  0.2990606912126880  0.4668521481141862
  0.4134909109684181  0.3166968585771882  0.5016866831022673
  0.7084701366677676  0.7997797898503460  0.6870033784490589
  0.7023908841949791  0.7213035632685462  0.6435977528817094
  0.5812138245213641  0.4798091871278811  0.7857303449919291
  0.6808581503500398  0.4191103322392926  0.8144730456189635
  0.6617926369654110  -0.0029744975018083  0.4672170853062859
  0.5709067338690530  0.0187645381792093  0.4217955333473882
  0.0876953182518646  -0.0631527180425493  0.5114118469682080
  0.0104614276402949  0.8431049919604607  0.5059468691011677
  0.7415591207708621  0.2616018988383882  0.3877399650206989
  0.6710154716077221  0.2536572456080320  0.3390834467762961
  0.3496598092044564  0.7073030240025477  0.9063868662384366
  0.2174077758937444  0.7427860468460177  0.9120194246569030
  0.6753056365507087  0.9498028098506121  0.8704914746343351
  0.7543620746273487  0.9417577835977423  0.9176666621068427
  0.2892182066202509  0.5395887341159751  0.8344056775844786
  0.1715165239367608  0.5134117858296446  0.8022947789769860
  0.8924465238169090  -0.0207349723976851  0.5096855087668521
  0.7840575453867018  0.0066738093056997  0.5421805707982760
  0.3459275554710493  0.2417404897572783  0.7028108289009971
  0.3988474811974775  0.3257268478244517  0.7311477736141208
  0.3829314784680680  0.5057477906446263  0.7557319653963822
  0.4770105882496494  0.4776863362248795  0.7192216880256541
  0.4506844376373076  0.1546147562525515  0.7441997578427393
  0.5775303347369339  0.1038584306010525  0.7511946600836730
  0.5389053703747017  0.6944503855253604  0.8903991741276431
  0.5035516622882092  0.7937110171579019  0.9134698230909531
  0.2783181002675589  0.1762193547664264  0.8594232497711815
  0.1280159584237132  0.1866994683486720  0.8706359867923061
  0.9767281955182988  0.3370444953771455  0.6258064932180585
  0.0840975200454336  0.3386399410668475  0.6683911110775680
  0.1150336124192041  0.0907791552536352  0.7355789681696928
  0.1526009594517348  0.0820606848781525  0.6792344977205049
  0.1569497786890161  0.3902842241445519  0.5878343463313739
  0.2411279253488299  0.3707540169615582  0.5424699159259682
  0.3683725082528091  0.3092839115664944  0.8210728832141886
  0.4678564207409787  0.2529020912150028  0.8546005159837532
  0.8546444636572981  0.2440520858037994  0.5752218869780801
  0.7505075504007027  0.2919978602862450  0.6074827221027718
  0.3056149121274195  0.2309106867171199  0.6056434539484344
  0.4153572708485866  0.1777846760643738  0.6250837057186459
  0.0969050639635361  0.4911358193446925  0.5189747562011304
  0.0392365094490469  0.4936241861152987  0.4661024134129813
  0.5431175071805209  0.6344946307618523  0.5194975013894133
  0.4279372660941024  0.6000746928622728  0.5514553992584015
  0.4507494444926152  0.8668882514934811  0.7935431076224146
  0.4949117291599068  0.7865003697493960  0.8272444042083057
  0.0608620948033450  0.8096703462500566  0.8770896857200334
  0.1741387882283059  0.8112815863254242  0.8507200651870942
  0.5436570342304958  0.6855345247885947  0.7055166658346915
  0.4782596676464581  0.7271170672114502  0.7521236729561031
  0.9045363581148573  0.7421948725784779  0.8201990974094290
  1.0191688856127650  0.7307397694849292  0.7862673961055974
  0.2210083121097542  0.2150878427483507  0.5287493762961365
  0.1880339395912109  0.1174469472548015  0.5578381278582110
  0.0212137014964536  0.6702219239780834  0.3490609371854400
  0.1206035466443237  0.7334252477227163  0.3797706043065525
  0.5730699070956432  0.3827809933511977  0.6226157911283744
  0.5040842881084450  0.2973484746106925  0.6049504534688420
  0.3304772215241551  0.8311752363318649  0.4898961998555510
  0.3570363824118790  0.7244594982905075  0.4937126051611924
  0.8011097043637047  0.7772584888613625  0.3508008362083631
  0.9548078985790305  0.7917905306403684  0.3518245021570778
  0.7506200324723049  -0.0980710036971329  0.6159403255161511
  0.7885006722309799  0.0070951388060566  0.6260672188185757
  0.2185769346814730  0.0635855055688493  0.9062203022937161
  0.1948317113521084  0.9440523750666944  0.9109882242632825
  0.8613751175479339  0.0147389034489165  0.8463645419901632
  0.8400688509591984  0.0979940721230695  0.8083244672999217
  1.1097248907303934  0.6057033976570321  0.6329372283914185
  1.1228595204815039  0.6920256448626753  0.5961884969715173
  0.2181069584971543  0.7376442439254504  0.6723347837135623
  0.3553699006999017  0.7403161854124615  0.6976188407072278
  0.8271337644121023  0.5462103176381865  0.4142808791411340
  0.8756119491842060  0.6457399452852151  0.4332944448277653
  0.9616604851605072  0.4429605641516751  0.3492913080182319
  0.9041092988642860  0.3778882434047753  0.3945709677046587
  0.0432837344326851  0.0254429584244723  0.7982842329178712
  0.1519914534872777  0.0851445435901368  0.8073195668308492
  0.8872601828704677  0.2291182807050398  0.4138410394511337
  0.8668629721785740  0.2613081056847393  0.4661397180097696
  0.2891032897151680  -0.0156971339556736  0.5461635892604721
  0.2152887165373971  -0.0012840051959797  0.5992134942542734
  0.3379672062801151  -0.0138133188184801  0.6808571075257808
  0.2435317196538913  0.9114483807274684  0.6722436542449169
  0.8773085032476207  0.7404693463070565  0.9000895464507812
  0.8303552946989715  0.8289174794915699  0.8715887295052496
  0.6397395953339252  0.4274249366960934  0.3857184587676913
  0.5912552138146538  0.5991481768924184  0.4191022149982470
  0.2341906622634402  0.5721240800616321  0.3524571988721435
  0.4450414452978839  0.6409773337121919  0.3569873019450184
  0.2778821599702007  0.4930071213277454  0.4025122421311684
  0.3727679794059578  0.6414120337324798  0.4186812561130814
  0.4322612579318480  0.3816291139880969  0.3951453223888582
  0.4979792814352225  0.5085789935581373  0.4446468960787937
  0.6166040415136371  0.5172456398688938  0.3423786878448231
  0.4850661809307866  0.3532234888205122  0.3390309646930194
  0.4595878240280926  0.4192224575592103  0.3599570416298837
  0.5708646800699440  0.4750769851664481  0.3721195013426136
  0.3586903621013440  0.4625488137550235  0.3334196562931566
  0.5261246013174595  0.5482485375575076  0.4100505075127426
  0.3094060843529799  0.5351783575606732  0.3716485144500856
  0.4154057144389639  0.6010711911092737  0.3884178712227413
  0.7089081498488018  0.7217040950470457  0.3663518324245831
  0.1327555363672709  -0.0254915301673857  0.3944535218428357
  0.7488952597763817  0.8147972020587064  0.7449838926796931
  0.6315840435885154  0.6088081255258846  0.8877531898643000
  0.3719867581054858  0.9675225975934940  0.8024753407833228
  0.1573592293982922  0.5239103342086876  0.9072007575314037
  0.1867674182972441  0.7403564494071739  0.7880100071010171
  0.5552286487177029  0.0707311147742650  0.3740594061568356
  0.7700703637605335  0.2771025499466542  0.8229492045509458
  0.7298016067338788  0.1268639761706013  0.7645608855565608
  0.9860438998706261  0.2040982909782521  0.8848374004636598
  0.5335377733617325  0.4705839657389397  0.6654582789622796
  0.6239794171808787  0.3878262472592353  0.5072389296469610
  0.5404466970054982  0.8381455006210570  0.3854395045917416
  0.4820131946685657  0.8313609511646243  0.5916339555039967
  0.2771188011732654  0.1222072738438479  0.3761985090680414
  0.6908998168609655  0.5601522216751997  0.5319052865444704
  0.1366472046305567  0.3012249190372158  0.7252705714456421
  0.0526735362829935  0.4467264113252319  0.7909805488749670
  0.9511760906603468  0.1338562778936442  0.3748710635601816
  0.5964244140938264  0.2043097425782445  0.8786521546781887
  0.2448183211654500  0.3448105643954826  0.9187465291122685
  0.5194611577059675  1.0039634317182136  0.8823608309122968
  0.0876812967267513  0.7347028391728100  0.5351472719705879
  0.2012603377503849  0.2862416176118971  0.4107495625780098
  0.2394322556661673  0.7862055120483104  0.3884625943197566
  0.8394887751062510  0.1042338178036355  0.6671922839509449
  0.9364842996164574  0.4849443041226161  0.8794085034954517
  0.7226251952014214  0.5596202611707584  0.6270245315483750
  0.3978791913063945  0.9440677062727150  0.5159991093571100
  0.3493777010340762  0.5462681445396889  0.6148734704040798
  0.5086196718952620  0.0709964414609877  0.6403086959647688
  0.9160386459198512  0.2049552303016891  0.5257939507317873
  0.7731485897933220  -0.0028081748919788  0.3463362838473523
  0.8810320281980568  0.5537220882550918  0.7637079761455904
  0.9708992423505491  0.5441524905250357  0.6469617103559914
  0.3316333446497025  0.2900771726561624  0.5002261409586409
  0.6847035593180739  0.7861515406952903  0.6466572520004427
  0.6589296407065384  0.4818563633703688  0.8049084882183960
  0.5899831384459382  -0.0265861865007122  0.4505361896960919
  0.0247233825268867  0.9063761452907153  0.4906306588108002
  0.6662716481355858  0.2322063066188624  0.3730701786139359
  0.2619147550434621  0.6836511274966223  0.9089980895675662
  0.7490346310486173  0.9210944945099641  0.8825216501861064
  0.2453672093991563  0.5504350096507270  0.8047364837219738
  0.8263978450432961  0.0256016938856471  0.5106206187045436
  0.3791188491361782  0.2598307657134110  0.7351077569149376
  0.4416926192081631  0.4535148651187542  0.7514698169771618
  0.4859780548299973  0.0922589151648592  0.7469158156344327
  0.4726259253766537  0.7430685647125135  0.8914614595661882
  0.1991754403971369  0.1426572731580791  0.8650577652958212
  1.0554172352701661  0.3688339841836223  0.6357806397638563
  0.0999796189147301  0.1221720567787871  0.7004841988299177
  0.2029583489115725  0.4230492245573068  0.5616761305462800
  0.3825588151886912  0.2639077638188488  0.8478108976050394
  0.8330038344415581  0.2661654862144147  0.6099830017382631
  0.3783916539641376  0.2408999580827297  0.6289188566729074
  1.0385441611744450  0.5264700124581424  0.4973896664694976
  0.4600301061642942  0.6498500192850700  0.5304039065607935
  0.5111992068910248  0.8148689490906685  0.7949230610528429
  0.1409553917292816  0.8413363825742858  0.8819828921752475
  0.4685403609606287  0.6777406265932441  0.7268951186492201
  0.9296047821890809  0.7203694998800831  0.7855006449507342
  0.1609840522380696  0.1856715818186390  0.5534354319852232
  0.0327804222233536  0.7061227288893671  0.3807659617736050
  0.5812449281833154  0.3322571954786757  0.5979252523445555
  0.2999207057332041  0.7684733904705748  0.4792259518837731
  0.8786083828144713  0.8255767672673199  0.3420715266523331
  0.7405349282545662  -0.0314135931869304  0.6046815655741574
  0.2440356869083042  1.0002341043432190  0.9202271324543616
  0.9013820909340893  0.0691807268477983  0.8302998701994653
  1.1607526032366982  0.6600221163572264  0.6255981526355410
  0.2730995901548428  0.7702929737276248  0.6946248503171073
  0.8050408708465745  0.6030574247351599  0.4336215472958967
  0.8980070766213287  0.4382206539925719  0.3763861287216825
  0.1249984452426356  0.0329604357131345  0.7850643161315880
  0.8511104695580828  0.2786171540861446  0.4325225814563491
  0.2087162120777815  -0.0043607239304093  0.5619379203233255
  0.2577589234758123  -0.0240782127027430  0.6666582947597657
  0.9001622077343024  0.7851744513664397  0.8734390187370162
  0.2586498348940822  0.3969112904269730  0.3311996970133966
