combine
1.000
11.0985002518  0.0000000000000000  0.0000000000000000
0.0000000000000000  14.4173002243  0.0000000000000000
0.0000000000000000  0.0000000000000000  26.7964000702
Pt  H  C  O  
96  170  6  81  
Direct
  0.0000000000000000  0.0000000000000000  0.0018699899937576
  0.1249999521128992  0.1666699702868031  0.0018699899937576
  0.2499999943280624  0.0000000000000000  0.0018699899937576
  0.3749999464409617  0.1666699702868031  0.0018699899937576
  0.4999999886561249  0.0000000000000000  0.0018699899937576
  0.6250000308712881  0.1666699702868031  0.0018699899937576
  0.7499999829841874  0.0000000000000000  0.0018699899937576
  0.8749999350970866  0.1666699702868031  0.0018699899937576
  0.0000000000000000  0.3333300219343480  0.0018699899937576
  0.1249999521128992  0.4999999922211510  0.0018699899937576
  0.2499999943280624  0.3333300219343480  0.0018699899937576
  0.3749999464409617  0.4999999922211510  0.0018699899937576
  0.4999999886561249  0.3333300219343480  0.0018699899937576
  0.6250000308712881  0.4999999922211510  0.0018699899937576
  0.7499999829841874  0.3333300219343480  0.0018699899937576
  0.8749999350970866  0.4999999922211510  0.0018699899937576
  0.0000000000000000  0.6666699625079541  0.0018699899937576
  0.1249999521128992  0.8333300141554991  0.0018699899937576
  0.2499999943280624  0.6666699625079541  0.0018699899937576
  0.3749999464409617  0.8333300141554991  0.0018699899937576
  0.4999999886561249  0.6666699625079541  0.0018699899937576
  0.6250000308712881  0.8333300141554991  0.0018699899937576
  0.7499999829841874  0.6666699625079541  0.0018699899937576
  0.8749999350970866  0.8333300141554991  0.0018699899937576
  0.0000000000000000  0.2222199683821562  0.0864100026098289
  0.1249999521128992  0.0555599860957249  0.0864100026098289
  0.2499999943280624  0.2222199683821562  0.0864100026098289
  0.3749999464409617  0.0555599860957249  0.0864100026098289
  0.4999999886561249  0.2222199683821562  0.0864100026098289
  0.6250000308712881  0.0555599860957249  0.0864100026098289
  0.7499999829841874  0.2222199683821562  0.0864100026098289
  0.8749999350970866  0.0555599860957249  0.0864100026098289
  0.0000000000000000  0.5555599783168760  0.0864100026098289
  0.1249999521128992  0.3888900080300730  0.0864100026098289
  0.2499999943280624  0.5555599783168760  0.0864100026098289
  0.3749999464409617  0.3888900080300730  0.0864100026098289
  0.4999999886561249  0.5555599783168760  0.0864100026098289
  0.6250000308712881  0.3888900080300730  0.0864100026098289
  0.7499999829841874  0.5555599783168760  0.0864100026098289
  0.8749999350970866  0.3888900080300730  0.0864100026098289
  0.0000000000000000  0.8888900002512240  0.0864100026098289
  0.1249999521128992  0.7222199606033073  0.0864100026098289
  0.2499999943280624  0.8888900002512240  0.0864100026098289
  0.3749999464409617  0.7222199606033073  0.0864100026098289
  0.4999999886561249  0.8888900002512240  0.0864100026098289
  0.6250000308712881  0.7222199606033073  0.0864100026098289
  0.7499999829841874  0.8888900002512240  0.0864100026098289
  0.8749999350970866  0.7222199606033073  0.0864100026098289
  0.2473726934190707  0.4485345346350360  0.1726027766559420
  0.5069325711811847  0.4542667544205897  0.1693326583090582
  0.1271798126752375  0.6182615979360854  0.1719327120408086
  0.8815844231488076  0.2777805444773864  0.1732983568775826
  0.0071227090423482  0.4517917506164892  0.1709985346127055
  0.0053758241335647  0.1145477189284364  0.1720689412540774
  0.1266382303475689  0.9550391553470288  0.1716621883704272
  0.3753509485684219  0.9527746877843034  0.1711879342554450
  0.8756580005414528  0.6185353215624650  0.1726043828045249
  0.5039284029473198  0.1212066601661439  0.1712672662065441
  0.2615435831457698  0.1188776837990286  0.1719846965945677
  0.2440747745318711  0.7837539921902146  0.1736531980941300
  0.7465236051471239  0.1215424418398750  0.1760951572688167
  0.6227226626840053  0.2801347656125469  0.1705909261775655
  0.3765962433728040  0.6188837241844438  0.1729142961801367
  -0.0016622240826645  0.7904204431071487  0.1735201899366662
  0.7497196666505012  0.7887269843790820  0.1711171863118767
  0.6255463356298088  0.9577035384078223  0.1748021901945368
  0.8759851780445044  0.9548334091911014  0.1763833578882943
  0.7638275069214968  0.4466456707578656  0.1719539328428010
  0.3684275010343699  0.2939881422845096  0.1726414128420449
  0.1254092851936696  0.2837496753660497  0.1742395116197842
  0.4910747716941363  0.7890969307086318  0.1710089268108840
  0.6235045733659096  0.6234088759802036  0.1700249836382591
  0.3880062459791888  0.5201703244384036  0.2613467473113350
  0.1171032736688197  0.5247327850500743  0.2558178459472760
  0.0063699677880833  0.0233522294924913  0.2596591721787974
  0.8766081624426783  0.1858902189178850  0.2646625460778571
  0.7630350053671924  0.3529088203507281  0.2598173267663128
  -0.0018799279115767  0.6856438990733406  0.2574096813277097
  0.6349430375024862  0.8554897053341236  0.2597769010711761
  0.2614761773537234  0.6853711853933291  0.2569394411810113
  0.7520132092483736  0.6872678357976754  0.2617934093356609
  0.0028226345892923  0.3495723204477211  0.2610980607421488
  0.1222831791331347  0.8564251952587398  0.2610510970568514
  0.6294770511868881  0.1933493123006214  0.2610142685650609
  0.2571444831059169  0.0208217167936915  0.2611783536768103
  0.3786496710777144  0.1879704820762709  0.2575471899591060
  0.8804438012798352  0.5195622785862943  0.2565740021192587
  0.5122318652088134  0.0176879057543786  0.2587275930064233
  0.3832061908463919  0.8536542311546098  0.2593406903387874
  0.5098057322458815  0.3542128517232809  0.2562995076319123
  0.1269404870781083  0.1823524947943329  0.2602184984748944
  0.7582134376881431  0.0175600729374623  0.2645544003309505
  0.8808503279003367  0.8551449416181247  0.2635060122143973
  0.2559183843546201  0.3418616075839749  0.2627691195292505
  0.6336347924990547  0.5193439442621818  0.2563525466967224
  0.5095455519391295  0.6869955809553030  0.2601289233157794
  0.6578416508497068  0.7647324836391352  0.3782357310440153
  0.7684481850074105  0.6863612046603166  0.3881171000453112
  0.1895772664021664  0.9202668611240762  0.3878576738021671
  0.1194250314302633  -0.0417544013119300  0.4340804894063213
  0.8012227765240442  0.8075403418787639  0.7441301063337638
  0.6689736160879798  0.8287069954999217  0.7522083030181285
  0.6913496842923051  0.5118112328175692  0.8706076543298108
  0.7359631333769863  0.5685070779191570  0.9121483637528618
  0.4306299219414683  0.0047434244092895  0.7778623338505942
  0.3058086942287129  0.9678267654079791  0.7913738973050690
  0.2157563311143448  0.5581378358714657  0.9052503735707567
  0.0946032558164527  0.4966204378564666  0.8931487436073861
  0.1690202391260714  0.6742486098691182  0.7718045060836278
  0.1802459609779760  0.7694810515079384  0.7412616509181619
  0.6011334337824572  0.2112491649349609  0.4022030098134581
  0.4972648921375591  0.1438119116507937  0.3988556709670080
  0.7221990203676431  0.2452480040361838  0.8474847753133469
  0.8479917733455576  0.2746071009624290  0.8418468265178289
  0.7684666333738884  0.1658872766947684  0.7663329354242894
  0.7762408651207414  0.0904185800613924  0.7267212846085356
  0.9153849655454400  0.1291842560690262  0.8688864756647970
  0.9239003783269706  0.1843561707288404  0.9196872339022389
  0.6081435648483533  0.5527164855712021  0.6293985802389955
  0.4770485649303213  0.5115026397085417  0.6178801913661840
  0.5466043061283088  0.3234436666401882  0.5291614544510780
  0.5382059519376259  0.2682642810670737  0.4818483763294414
  0.5418355648300044  0.8897077837277815  0.3520354861207889
  0.5782079216657426  0.9104111306551700  0.4091554346396266
  0.4975957218007295  0.7224772374611305  0.5710102070470319
  0.5978857975539357  0.7737755701374140  0.6053746962988572
  0.3286626921424277  0.0958052355719091  0.3405985528910593
  0.2738728857988744  0.0606520859242533  0.3918539533255158
  0.7543501504576864  0.5678382844800256  0.4848598674770804
  0.7069894920917281  0.4703836322330084  0.4985371418027307
  0.1260949345181147  0.2337945681687888  0.7072841337959074
  0.2349484934756921  0.2952647984346657  0.7216192118882511
  0.9898613281572209  0.4603354776446875  0.7694607296720402
  0.0826174912102460  0.3754790235120345  0.7674254978029410
  1.0079729448837600  0.0382234077688950  0.3784506734088446
  0.9916652119474433  0.1369010753395635  0.3481865067231907
  0.6266568906706126  0.1569895379500494  0.9063944137037480
  0.5484512397531177  0.0958457803889627  0.8733888712509181
  0.2188707590925209  0.4019931937764302  0.9146305540965552
  0.3427344262107015  0.3450380384682269  0.9090006715225982
  0.4627645436028191  0.9850231212334705  0.8480404949160170
  0.4130893358817953  0.9996922133526415  0.8988826118657147
  0.1874706649362424  0.7128440551982048  0.5005069911616639
  0.0721534932767266  0.6542101204151033  0.5084181802335032
  0.2041906822619981  0.3029001135482722  0.3705075493644807
  0.2570601773908409  0.1961399431867139  0.3865901901173802
  0.3277360317679026  0.7795996267009637  0.3607215114409902
  0.3189824029175322  0.7998357407140618  0.4208563357374829
  0.9481674619859830  0.1011427105778260  0.6692235582921775
  0.8590272792176357  0.1676181918183876  0.6424345947590382
  0.9298852302883182  0.4420156743950590  0.8961898759492869
  0.9477676658604407  0.4416039221177502  0.8377823900220804
  0.8241710194597232  0.5782625783326769  0.6143924894041605
  0.7468839784957079  0.5648376418474276  0.5629341393165508
  0.5151585095087703  0.8655805467494111  0.5540563164792750
  0.5328913809990494  0.9335516931328581  0.5023403539369359
  0.2856521155266745  0.5964564593866269  0.6146528437197299
  0.2792714516988285  0.5103937015473559  0.5780425467832027
  0.5244027806420128  0.0333629142916287  0.6851175674607315
  0.5592194874432159  -0.0104449882333855  0.6308940714167289
  0.9132595511592777  0.1211126983578355  0.5191135165902222
  1.0320477170275608  0.1635713402031551  0.5372913504307349
  0.8244399758170937  0.0511496468081495  0.3587733530554146
  0.7665981601090762  0.9528750409626026  0.3630889274309668
  0.8712040507573834  0.6085926456959813  0.7616757256396518
  0.7890466704976392  0.5151709034456636  0.7618820587248989
  0.8951851564799186  0.5435666507583251  0.6874122574354636
  0.9740632038411393  0.4781335151626624  0.6468655400050022
  0.2374828427987404  0.2912432119310930  0.4535254589408469
  0.3487317959444369  0.3172480111214493  0.4845626212134356
  0.7446592593949451  0.7756566609157202  0.6628639393749515
  0.7699265000074340  0.7204343389890325  0.6105603169880530
  0.6185864724998806  0.4305887753475989  0.7814042326747407
  0.7169720910182842  0.3861287203561921  0.8160871181505980
  0.7222498500371660  -0.0052820613648349  0.4612228268021883
  0.6090469540426162  0.0561352670894592  0.4415694223254552
  0.1222965895306319  -0.0687785019991942  0.5156429916817880
  0.0598999720968768  0.8385471884273661  0.5054474934699282
  0.7963437279795152  0.2522218734386212  0.3912365792171781
  0.7495869742175969  0.2625373242779770  0.3350205670605587
  0.3627351084347704  0.6715169743279770  0.8889300717707269
  0.2317135243730715  0.7168589832984352  0.8879676214440997
  0.6768314442468659  0.9145666357405827  0.8814571488603584
  0.7632014919787236  0.9289329754836436  0.9247897795965039
  0.2495288505445452  0.5940965756656336  0.8213181572279659
  0.1631802989693382  0.5170345337011197  0.7932814060139288
  0.9410207620625284  -0.0308551932039411  0.4985243227711033
  0.8367924657832732  -0.0082435176802161  0.5343346486464491
  0.4103303165994346  0.2453526372044282  0.6884131315614560
  0.4134382344637791  0.3153427084036977  0.7300325744708883
  0.3719532215742829  0.4573961141480063  0.7547031255698466
  0.4535918574839455  0.4782273296063487  0.7067191596665341
  0.4763632947562033  0.1529143839554774  0.7475819136533173
  0.5995421440857132  0.0939626991547770  0.7571747431873809
  0.5615203330548435  0.6400948147313806  0.8798647877488577
  0.5323250642303508  0.7182919130965663  0.9135251063303480
  0.2020379031695144  0.2161534905160309  0.8885830272805851
  0.0771493698764507  0.1572582139115495  0.8798091687516755
  0.9571933840680007  0.3342908910349756  0.6339650878922412
  0.0705952141211988  0.3521009506720230  0.6687373199293427
  0.1245577143520627  0.0863976612348362  0.7309483249498973
  0.1668068829840093  0.0695854450134203  0.6739339215189294
  0.0946309518378093  0.3941756595261526  0.5800577837015399
  0.1637297701106315  0.3603472016101574  0.5292705263298506
  0.4990597375264007  0.3913055726474555  0.9019228212888678
  0.4932401745282807  0.2842152057771239  0.8801273238164478
  0.8805994362089526  0.2366808355872798  0.5694149199865307
  0.7612811801873585  0.2866039426948691  0.5952549428920714
  0.3705374087938623  0.2082561896740816  0.6067324905960270
  0.4740358433335833  0.1459727694199544  0.6219641223350195
  0.0804164960806529  0.4815181739642980  0.5064293899945014
  0.0189017716574793  0.4982974455641405  0.4545297696329361
  0.5482681376173431  0.6037591846862322  0.5129015858993861
  0.4220975450390447  0.6029616189269633  0.5424438647437879
  0.4632213137505855  0.8497546500107531  0.7881662744835398
  0.5132041633171321  0.7686189971006193  0.8183306069827735
  0.0746783998104229  0.7974002350539371  0.8731299251655550
  0.1647625078355454  0.7960085922229040  0.8290263769089261
  0.4650607240796242  0.7345241256508666  0.6667803225392971
  0.4613542741839882  0.7245714647249222  0.7267567389120060
  0.8980114231815761  0.7312547168387679  0.8100493660467277
  0.9941483286816641  0.7264482965713169  0.7692510128412241
  0.2597626931289592  0.2139152778203133  0.5280970827136325
  0.2457252431433422  0.1125974575783531  0.5500989451561796
  0.0658214677142095  0.7056121035444366  0.3454869956616117
  0.1452893230180789  0.7653765882395478  0.3803342162044356
  0.6111216285912127  0.3861963551549983  0.6101818623122969
  0.5756777590705356  0.2807274284389475  0.5996635846644928
  0.3654535352506014  0.8352928122425020  0.4969304203630145
  0.3979660660082123  0.7265120472587342  0.4856285083783224
  0.8035240920279888  0.8030868480206155  0.3525962302230055
  0.9405542370922595  0.8164566943164645  0.3550629958119216
  0.7708669707794472  -0.0979940800302364  0.6108124358466422
  0.7795463321178747  0.0105562404286680  0.6225176829088706
  0.2108802164256756  0.0570780366641047  0.9057890699203478
  0.2113290322644816  0.9453275841428717  0.9063864195105190
  0.8616257155059371  -0.0082072662051223  0.8597836434761084
  0.8572824643452968  0.0428518683656667  0.8067433759671677
  1.0580895083004964  0.6105212221123296  0.6343488438733826
  1.1284870392077275  0.6589584601621397  0.5890985135893361
  0.1575955635101533  0.7451646521234606  0.6677212353609427
  0.3020881073779533  0.7501742429259235  0.6862584567861598
  0.8930295105316185  0.5527914809367129  0.3990018614250447
  0.9413829313294388  0.6524927576207663  0.4065502092691621
  0.9813601151771431  0.4324206751755212  0.3519740011229652
  0.9587595828341070  0.3729394097264876  0.3977149559821622
  0.0868479215868535  0.0170710086542538  0.8035053068245708
  0.1719308677846382  0.0888265132081744  0.8196628607559100
  1.0189947964875532  0.2512781302073422  0.4132509325204051
  0.9301519551549972  0.2603312947713990  0.4575575675754751
  0.3401318193589051  -0.0201159264278331  0.5376856163609466
  0.2516250926107854  -0.0146884667729309  0.5812351480421732
  0.3309999416636675  -0.0169036521476636  0.6533996815852631
  0.2351562644400281  0.9018249820091595  0.6582851029424992
  0.9120193619726561  0.7203894862711214  0.9008344116807266
  0.8463705419726897  0.8091016550615232  0.8750940757963158
  0.6244176958392237  0.4177151361355105  0.3973454844608361
  0.5854585058775102  0.5838898300537210  0.4274433832527307
  0.2492245576740331  0.6010332879587880  0.3489358457518437
  0.4557728018323564  0.6397517674116290  0.3489278910601895
  0.2561360353385544  0.5301230575276507  0.4006117008171642
  0.4038625442453855  0.6612126844617227  0.4141294740124835
  0.4058369663837682  0.3675187036661202  0.3865984994648828
  0.4598300703712022  0.5102888668850761  0.4465854314254789
  0.6111812113623075  0.5053086525049260  0.3465790561892698
  0.4858797023521638  0.3561028343952151  0.3319292737829919
  0.4521448350813110  0.4132570224665125  0.3588529703284218
  0.5609744972155355  0.4670338257748894  0.3790403432995241
  0.3369290956490745  0.4667168591771975  0.3400473488128508
  0.5051583942966271  0.5446727185485430  0.4128879849351130
  0.3091278195577434  0.5535375269531418  0.3691786996568067
  0.4187874673739078  0.6071080102602896  0.3856594975603702
  0.7199857252608545  0.7267755226765241  0.3637133707873939
  0.1484901817912486  -0.0229637934737587  0.4003905113034805
  0.7290618272849693  0.8204827018696794  0.7256376290494335
  0.6600663358467628  0.5525830569215887  0.8961173380675226
  0.3931519433170554  0.9547854424088855  0.7976556227815891
  0.1682960016058987  0.4986371940138360  0.9124916691250723
  0.1489050857238094  0.7402569748815909  0.7744668800074795
  0.5572253770771410  0.1647096424403756  0.4229662246125513
  0.7715027182894638  0.2786011084814612  0.8225354370048966
  0.7428281254634300  0.1012303408747848  0.7602295871397606
  0.9474026296566217  0.1859992901639252  0.8843550934311427
  0.5507877573466362  0.4978213820367658  0.6360812450421360
  0.5193033652781378  0.3279201816600545  0.4954687526316257
  0.5652217008403996  0.8617186085062055  0.3830095521343438
  0.5071600967785815  0.7714064950076314  0.5968827330723094
  0.3311163051425791  0.1067830033118942  0.3783066593700226
  0.6957076840582785  0.5330388372884929  0.5052044094928666
  0.1441750567821526  0.3001312382263366  0.7173949179717752
  0.0622121338050173  0.4352331650501274  0.7855196867697347
  0.9571946756389043  0.0964946564860444  0.3747917263583773
  0.5908616245908044  0.1589963364594703  0.8732482445850179
  0.2533546482502410  0.3369428428501675  0.9210933808026168
  0.4944551797536771  0.9909853601383050  0.8823657975794480
  0.1038079519449617  0.7169566004304990  0.5184178582424156
  0.1843341837081274  0.2461535329005960  0.3907695458669067
  0.2734227555932919  0.8071418594298573  0.3875093475391039
  0.8596145042437326  0.1122212983241496  0.6659187248978410
  0.9308777160341479  0.4801311370718918  0.8670302804008925
  0.7512476777344537  0.5973782990787490  0.5953408582871980
  0.4783417583685674  0.9113655795177115  0.5289943264828335
  0.3301386940551495  0.5630855657023095  0.5897097005456844
  0.4937301199242019  0.0204472549169179  0.6505941547046726
  0.9540445619112113  0.1824844323117880  0.5215847062883354
  0.7461887795386463  0.0167922124346103  0.3528230538069226
  0.8577106457474847  0.5491121307550061  0.7442621940243016
  0.9440874166309671  0.5407891756154750  0.6546746076615456
  0.2630978298195221  0.3133030068546910  0.4861797687588698
  0.7451663014702098  0.7798193745560205  0.6245870725117548
  0.6919189507208008  0.4455272373376596  0.7993802723046194
  0.6322908378599961  -0.0057113203664314  0.4591641377336760
  0.0623742517812464  0.9037471521775584  0.4947990319283601
  0.7255604558006827  0.2564384330409202  0.3712682710676422
  0.2752075046089787  0.6553364284996525  0.8877516645735932
  0.7587344375051285  0.9195816771266346  0.8885811735054560
  0.2265454627522505  0.5653324790214482  0.7906310230851048
  0.8749492827037681  0.0171708103284656  0.5062409392105613
  0.3967777196640420  0.2471251816616025  0.7267094029677493
  0.4430346010491406  0.4379423253986209  0.7363687652000610
  0.5096814247296677  0.0888245914822223  0.7475911898433781
  0.5083331931794117  0.6971836480493372  0.8808223000800957
  0.1693992176551135  0.1504810673112925  0.8831075229958447
  1.0281683377580042  0.3719517535371548  0.6386357822382024
  0.1083844776599350  0.1043829241527131  0.6954017416624173
  0.1388691582135195  0.4136162733747560  0.5500187139089089
  0.4528939358437002  0.3480692288381370  0.8789889160519688
  0.8426567472918890  0.2584102386812082  0.6013505400085531
  0.4462295426894986  0.2072539447408974  0.6242089655394205
  1.0423490981066357  0.5327040855024501  0.4839151324405203
  0.4790119527039501  0.6428144087878263  0.5211075680060847
  0.5142537791963687  0.7936897237468454  0.7820012397263629
  0.1527754912043187  0.8188080159073725  0.8635220536967932
  0.4286881180030033  0.6977974018425116  0.6940813221990824
  0.9042251158639559  0.7216515555779207  0.7744029311077949
  0.2446085663204544  0.1795981309687764  0.5607549001632683
  0.0659868063418049  0.7323416212144974  0.3783060317595989
  0.6273290632462531  0.3316462289549188  0.5858223820951795
  0.3366977541757449  0.7769655199050193  0.4797638056089841
  0.8680716439266171  0.8523196065924071  0.3440365600658534
  0.7421514503875536  -0.0346644473254191  0.5990773389688454
  0.2499652753578180  1.0005809459586534  0.9204724052403620
  0.9093411916320122  0.0324635249539395  0.8360287057593850
  1.1363951754431403  0.6447379143934916  0.6256305910936071
  0.2143890857608531  0.7834259882209256  0.6875202047527310
  0.8650700618619955  0.6163086958419370  0.4095937181093923
  0.9575318383289168  0.4403610768401164  0.3872672455596214
  0.1690361595113479  0.0363755874013134  0.7952381662452523
  0.9383577840808677  0.2741823953584159  0.4210260593043831
  0.2517739527506707  -0.0066212412667320  0.5449063967640270
  0.2476170482993222  -0.0326976881361911  0.6464675705064103
  0.9153310559102256  0.7648444621770641  0.8736287765248786
  0.2414983419733043  0.4146119076874691  0.3286140386257592
