combine
1.000
11.0985002518  0.0000000000000000  0.0000000000000000
0.0000000000000000  14.4173002243  0.0000000000000000
0.0000000000000000  0.0000000000000000  26.7964000702
Pt  H  C  O  K  
96  166  6  81  2  
Direct
  0.0000000000000000  0.0000000000000000  0.0018699899937576
  0.1249999521128992  0.1666699702868031  0.0018699899937576
  0.2499999943280624  0.0000000000000000  0.0018699899937576
  0.3750000365432257  0.1666699702868031  0.0018699899937576
  0.4999999886561249  0.0000000000000000  0.0018699899937576
  0.6250000308712881  0.1666699702868031  0.0018699899937576
  0.7499999829841874  0.0000000000000000  0.0018699899937576
  0.8750000251993506  0.1666699702868031  0.0018699899937576
  0.0000000000000000  0.3333300219343480  0.0018699899937576
  0.1249999521128992  0.4999999922211510  0.0018699899937576
  0.2499999943280624  0.3333300219343480  0.0018699899937576
  0.3750000365432257  0.4999999922211510  0.0018699899937576
  0.4999999886561249  0.3333300219343480  0.0018699899937576
  0.6250000308712881  0.4999999922211510  0.0018699899937576
  0.7499999829841874  0.3333300219343480  0.0018699899937576
  0.8750000251993506  0.4999999922211510  0.0018699899937576
  0.0000000000000000  0.6666699625079541  0.0018699899937576
  0.1249999521128992  0.8333300141554991  0.0018699899937576
  0.2499999943280624  0.6666699625079541  0.0018699899937576
  0.3750000365432257  0.8333300141554991  0.0018699899937576
  0.4999999886561249  0.6666699625079541  0.0018699899937576
  0.6250000308712881  0.8333300141554991  0.0018699899937576
  0.7499999829841874  0.6666699625079541  0.0018699899937576
  0.8750000251993506  0.8333300141554991  0.0018699899937576
  0.0000000000000000  0.2222199683821562  0.0864100026098289
  0.1249999521128992  0.0555599860957249  0.0864100026098289
  0.2499999943280624  0.2222199683821562  0.0864100026098289
  0.3750000365432257  0.0555599860957249  0.0864100026098289
  0.4999999886561249  0.2222199683821562  0.0864100026098289
  0.6250000308712881  0.0555599860957249  0.0864100026098289
  0.7499999829841874  0.2222199683821562  0.0864100026098289
  0.8750000251993506  0.0555599860957249  0.0864100026098289
  0.0000000000000000  0.5555599783168760  0.0864100026098289
  0.1249999521128992  0.3888900080300730  0.0864100026098289
  0.2499999943280624  0.5555599783168760  0.0864100026098289
  0.3750000365432257  0.3888900080300730  0.0864100026098289
  0.4999999886561249  0.5555599783168760  0.0864100026098289
  0.6250000308712881  0.3888900080300730  0.0864100026098289
  0.7499999829841874  0.5555599783168760  0.0864100026098289
  0.8750000251993506  0.3888900080300730  0.0864100026098289
  0.0000000000000000  0.8888900002512240  0.0864100026098289
  0.1249999521128992  0.7222199606033073  0.0864100026098289
  0.2499999943280624  0.8888900002512240  0.0864100026098289
  0.3750000365432257  0.7222199606033073  0.0864100026098289
  0.4999999886561249  0.8888900002512240  0.0864100026098289
  0.6250000308712881  0.7222199606033073  0.0864100026098289
  0.7499999829841874  0.8888900002512240  0.0864100026098289
  0.8750000251993506  0.7222199606033073  0.0864100026098289
  0.8770457153272864  0.2789850192493504  0.1691538748647355
  1.0017432061414659  0.4450765224257896  0.1705096847498253
  0.1260213354838787  0.6160706254441094  0.1691350643081428
  0.1205381755325934  0.9452737301766005  0.1705888869148341
  0.9915059032336633  0.1144244493583817  0.1703972878311307
  0.7444052221434215  0.7816076410482827  0.1709621743666483
  0.1265894037775184  0.2773984998078362  0.1670452081389077
  0.9963097562940219  0.7841594607182367  0.1680682873222375
  0.2462900565197246  0.7810305910132159  0.1707930914716277
  0.8629484236977598  0.9456550404229346  0.1704727839236916
  0.3718684663390116  0.9537715943532444  0.1710935536299366
  0.8750282734845142  0.6169317240968984  0.1710717821047141
  0.2456182751591042  0.1112154714998210  0.1719917453660260
  0.5011581951532519  0.1250446086335510  0.1728793167501557
  0.6160744891537093  0.9521745485165218  0.1726492373744243
  0.2516255298320216  0.4480897818865850  0.1718791739126928
  0.7534697903659329  0.1151492611634648  0.1711064307775794
  0.7499879658560192  0.4497121651092481  0.1698421431079205
  0.6192029995300883  0.2835356966979215  0.1751904499821480
  0.3762991541963214  0.2850859207795653  0.1700505750012110
  0.3678514649795018  0.6168657620245822  0.1731245943353082
  0.4979388225002482  0.7782061649648934  0.1720366002941824
  0.4987628692716591  0.4489973791271520  0.1750555170288211
  0.6188468098999300  0.6125635742962960  0.1715618960441087
  1.0103585499114038  0.0143395153172679  0.2558742037489227
  0.1366726374272046  0.5151138868276276  0.2522021253562199
  0.8737001795469923  0.8604507247335426  0.2601054725948484
  0.2554530759361099  0.3430788401814082  0.2545288846760039
  0.8771627910285541  0.1837937236289089  0.2605336104406017
  0.6309463259474446  0.8513949421273133  0.2587820802209811
  0.7588029930290946  0.3551801762003348  0.2565142666624136
  0.2518193574890197  0.6799120911540801  0.2584147050819993
  0.1290604417265919  0.8452777119158379  0.2545527437092444
  0.7626440411556723  0.6849462064718475  0.2595626451716911
  1.0069117909591034  0.6914747827056527  0.2557345626482450
  1.0027158237343925  0.3458940104191474  0.2558605862145134
  0.2586570260909277  0.0136234254155955  0.2614583632146715
  0.8943110477913662  0.5176361385276171  0.2564328960531418
  0.5069868643456960  0.0116715219966344  0.2568776947152299
  0.3819871309380223  0.8445930175801146  0.2537821628832415
  0.6305999621403729  0.1832410405969935  0.2610779222944996
  0.3778142613746334  0.1829498318869936  0.2609269298182939
  0.1296790929987660  0.1827152923998918  0.2604731491586476
  0.7564475387869088  0.0213367622657616  0.2602756592239498
  0.3683404501555953  0.5176520851886718  0.2618150829036953
  0.6440547713228822  0.5161905025988549  0.2606211849578448
  0.5036084729279980  0.3470344010848206  0.2622181391303416
  0.5006614860596871  0.6780629600695330  0.2648653305521060
  0.4136643158750575  0.8652718967781424  0.3904620624482976
  0.4739572756370282  0.8590927508691292  0.3360420133864941
  0.2053659786717887  0.8815954886461496  0.5500488454563512
  0.3070252527090184  0.9534753501096238  0.5718619817458797
  0.5221012665616886  0.7739728692264075  0.8947308167623224
  0.5700465231844200  0.6927750409931511  0.9293916035570715
  0.7019227840929714  0.4784010205721356  0.8284709802563530
  0.7503003743005240  0.5020621076475810  0.8833576344653868
  0.2778266551104427  0.2190111965815922  0.7722101294610787
  0.2664393157553345  0.1829424449977465  0.8273405719581993
  0.0621181188591844  0.4067259781076459  0.8424292197780847
  0.0155860176127802  0.4360987110265486  0.8940029850480284
  0.1704190812621953  0.6991962163283201  0.8457429720831471
  0.1642841240738170  0.7736467973456210  0.8042717483408265
  0.1615713964424312  0.0269226802356365  0.3959823070189295
  0.2772783313043489  0.0711918288952628  0.3733881109659564
  0.6092951779681465  0.1133124968880447  0.8851260348988726
  0.6091843500930197  0.2232142859157426  0.8776995059592144
  0.5792586225113915  0.1606060139815410  0.7905902987491066
  0.6325151214878310  0.2297139329468877  0.7489640548029856
  0.1731670010628958  0.3605174056679091  0.9067166593590367
  0.3225595981330354  0.3867517976980136  0.9157583464239137
  0.0269477604013654  0.4416937657001025  0.5633642950863483
  0.0149438144016892  0.5462226010613825  0.5619883094799458
  0.4140299088748270  0.3324824413741955  0.5588013471127519
  0.4909904068719750  0.2629928002268604  0.5230245751512769
  0.6299644968126269  0.8131844332574568  0.3988971904098094
  0.6861175924165959  0.7789809081918655  0.3517117622930631
  0.4382743226149953  0.8587239725946060  0.6898395781400957
  0.4053686919969512  0.9386315948801047  0.7251345284327579
  0.6058195322480192  0.9683203569049507  0.5306723569041663
  0.6877404648490292  0.0190067174739232  0.5701239230821044
  0.5949673638498191  0.0939425896061452  0.4079569115314529
  0.6022918967556787  0.1227113570207905  0.4651166643522567
  0.5224103476737464  0.4243778863040958  0.6585326001093808
  0.6444984337266562  0.4179409055687164  0.6299795383997641
  0.6507602786447323  0.5613015579893642  0.7744683780781120
  -0.2347169674098542  0.5135403248744845  0.7397969549143263
  0.1570713388250157  0.1892582886150226  0.3782481480440275
  0.1423633524938422  0.2715387790428064  0.3439957847864450
  0.4006320797333732  0.9016952259472829  0.8939336735324841
  0.5201331941551076  0.9213287554220249  0.8692180370639673
  0.3752166737325261  0.4360448861433924  0.8146032228513850
  0.2584916530622878  0.4182101770023137  0.7832032911293728
  0.7507213123186353  1.0135955986176681  0.8740497899397570
  0.6894736582232313  -0.0181532420306318  0.9233772080010344
  -0.0196283852194056  0.6941122350655550  0.8085513636100257
  0.8381759244264813  0.6835950717311581  0.8068248512434840
  -0.0388655487420512  0.3661863942044898  0.4553246929489113
  -0.0495310044625934  0.3867630942582202  0.3971569786433842
  0.1561871042097659  0.6743474717141117  0.3841844261665840
  0.0742012509272537  0.6565538401736090  0.3406340875784615
  0.6749844383240003  0.3435463349477750  0.6996876936895225
  0.6871347947902381  0.3869961717240232  0.7526533576101169
  0.6319353525862664  0.3187752474248793  0.9224083545755001
  0.6858415511650310  0.3792359154930108  0.8778525374033359
  0.4896419365687399  0.7459519010898704  0.5504526779477177
  0.3787101006929582  0.7971289565663456  0.5306632367611859
  0.3308563387566224  1.1095484017484754  0.6282575042205789
  0.3474252446202931  0.0077230466014941  0.6388215631859028
  -0.1643052163110282  0.7593825996664065  0.6527337546490607
  -0.1700771039126535  0.6697556730853769  0.6791083994949542
  0.3394013137035409  0.2658478023187655  0.6621283567836944
  0.4338649079382634  0.2203342676561509  0.6220624719675484
  0.7782283986432481  0.3151675958402688  0.5916970059546384
  0.8255152258625278  0.2521043681794088  0.6407899113469178
  0.8196761743844249  -0.0348577821562567  0.3439376507872541
  0.7958056642443693  -0.0986610440283776  0.3888757071771180
  0.8187734717243627  0.9967923718324145  0.7076097616480496
  0.9434749792704419  1.0532991028933998  0.7158784385083569
  0.6254954024057536  0.8525793155352570  0.5895934127125488
  0.6704972073675545  0.7597888424101159  0.5807236750023584
  0.1199634277328656  0.3817250559799040  0.5004038795424627
  0.0636566578971260  0.2910013730537890  0.5217452452446404
  0.5682828090558533  -0.0034731775242914  0.6851947701593993
  0.6078083487997349  0.0869198999884768  0.7105905146742303
  0.6212611642894479  0.6954204707897588  0.8269541097777247
  0.5991461976244525  0.7099011890068989  0.7670600517402482
  0.9009885962004839  -0.0568926641006968  0.4783977407866907
  0.7922181375879147  0.9007378932993342  0.5011827963538746
  0.5178738936882780  0.8494057557225202  0.4782368550114109
  0.5394047031020314  0.9417201092903789  0.4529626644624659
  0.4853284492493847  0.0024500509561744  0.3670275354948675
  0.4802345493694589  0.0933305186245666  0.3423776452495518
  -0.0565498692670850  0.5141649482131052  0.7130098442121594
  -0.0874968143414247  0.5948391296274326  0.7534641058838807
  0.7778385442663651  0.8772413241269011  0.8639702040740282
  0.7904741449978473  0.7824217359771111  0.8934519519069604
  0.9040946562912974  0.5809778111079521  0.8565964927739146
  0.9242997759482195  0.5702535263115933  0.9143784087045512
  0.8996149055166884  0.0797740145662980  0.5781288028696152
  0.8020339474026086  0.1604442144584882  0.5722602111002721
  0.0256231959587403  0.3655509661522559  0.6704559734156077
  0.0577782971348763  0.4640038626181000  0.6505949620369987
  0.5702544580357640  0.5191681584659112  0.7183394932555331
  0.4289229386761457  0.5203899108346599  0.7232588231526336
  0.3697626988776638  0.3371387773286102  0.7512126556949766
  0.4470492497123934  0.2404822078724755  0.7435416524795635
  0.2576272726521109  0.6534658014973415  0.9179425869505019
  0.3426899112862711  0.6925093663841461  0.8767512951535302
  0.3132999080876770  0.2492527446881600  0.8945287506047112
  0.4135773483048361  0.1675034087054431  0.8775842429279151
  0.6952550238802346  0.6137355049585654  0.5446683891890060
  0.7665467530822657  0.6439979126571042  0.5953157082335253
  -0.0498295735147014  0.2174217807586923  0.7213459042618231
  -0.1230600257614529  0.3063427259394843  0.7166995231444407
  0.7265554700863478  0.5406921107504706  0.4507404710542467
  0.8492913694326650  0.4785816371064027  0.4405467874928578
  0.0756644373336662  0.3995057040562984  0.7424375514688870
  0.0933877959080013  0.3128092438207491  0.7739849964945386
  0.8582390669095284  0.4623671336235670  0.5794025924798084
  0.7445413686736481  0.4499148372152970  0.5414269101070229
  0.2059965293084717  0.1594691473667795  0.5265484258496029
  0.2177673167604802  0.2207827122400476  0.5748489839995522
  0.9060618659506799  0.6408313713844841  0.5333110650408847
  0.0272335673778067  0.6976482586280022  0.5406537679929433
  0.3659104615455914  0.6132854113072547  0.5449312578535112
  0.3715383008466600  0.5185158180031560  0.5782264351595178
  0.3195843685659013  0.0659533914329767  0.7928996500402459
  0.3754490610408547  -0.0091305727599490  0.8236143695527113
  -0.0112591088764208  -0.1134048757231442  0.9007170560922237
  1.0753486549918645  -0.1586523866614602  0.8599808232758634
  0.6050772365402127  0.7598354614850843  0.6734483286345900
  0.5036097028148918  0.6959780547461816  0.6975322775870353
  0.9542463206668267  0.9969623924577651  0.8614003847916023
  0.9005487164339174  0.0974982094241745  0.8783711631128936
  0.9047817406204404  0.0977426822897711  0.4954165905353613
  0.0398682693662360  0.0672211120960447  0.4915710598957961
  0.1865531438596133  0.8307609681327512  0.3903572183762342
  0.2419987058309434  0.7924640106365494  0.3416862909948210
  0.5250705224748607  0.5523564736258830  0.4969373607393156
  0.5656907319961322  0.4512414761908636  0.5063309900231212
  0.3264199987392390  0.3914902056479886  0.4863869513350911
  0.2697491896812320  0.4832524302751888  0.4974487437483803
  0.0385955101934181  0.8244801912750024  0.5948321098782965
  -0.0048302360935033  0.8480088921636927  0.5419142759011516
  0.5844555005211609  0.1190701728543181  0.6387152320820032
  0.6373479216484924  0.2035897897550034  0.6101024264181312
  0.2235109075388524  0.0644354099066495  0.9075394056810143
  0.1842190723353280  -0.0425595786002848  0.9010774735279501
  0.9633222091575859  0.2830054929024067  0.8806454860607651
  0.8259560789678118  0.2640057380912871  0.8894810416756889
  0.9798862307487181  0.8787877874142800  0.6808929851771622
  0.0845099178375819  0.8001666019797488  0.6815733344685685
  0.0886863215000932  -0.0747360382135841  0.7571620792474818
  0.2288055064095845  0.9304379246185329  0.7755507123963047
  0.4090099137551294  0.1208830697346887  0.5081616272569096
  0.5198725114111007  0.1240340414695653  0.5441104215231690
  0.0663564048197015  0.5092516950313057  0.3812046201668670
  0.0357203479754576  0.4514902632761151  0.3319843456581741
  0.9547209223950328  0.1066327916102367  0.7918666730572375
  0.0695052630264067  0.1381551732302022  0.7772162495387223
  0.0692698254681135  0.9440362328627879  0.3383633584267622
  -0.0138064639026474  0.9399237809142555  0.3830143106056185
  0.2444188092855200  0.0701269690351537  0.4550043230866346
  0.2486602376345769  -0.0016254908918731  0.5056769096856847
  0.1191090758037874  0.0622867745506493  0.6038625158196194
  0.0127765221230681  0.0195639653757501  0.6360709964341409
  0.3676772336278661  0.5229202713898569  0.8849758868010140
  0.4929982792866633  0.4818851467690318  0.8834829882849746
  0.5010029975444830  0.3383244157098648  0.3586498550336157
  0.6842326007307501  0.4371208264414140  0.3560194458624081
  0.6742735188104633  0.6091562123952656  0.3564901311285991
  0.2931393936196333  0.5863340011919904  0.3507489789963361
  0.4696770393418319  0.6755044458036077  0.3674706226248138
  0.2048592652985932  0.4290093765457608  0.3602562543852910
  0.4964366411134166  0.4041741635704144  0.3364238181279219
  0.6052961927725745  0.4665790378050205  0.3414999702171450
  0.3814812835827375  0.4546662479256422  0.3421214258550804
  0.5955185917509950  0.5650603854159209  0.3413202658468793
  0.3762694334329284  0.5550339214974990  0.3364458352122488
  0.4821751260700367  0.6196736291890441  0.3397383388197805
  0.4890079974201726  0.8826407348341009  0.3730716694261307
  0.2826818430797596  0.9138814280840655  0.5431175621379419
  0.5518195014237824  0.7105257734824876  0.8950378760120142
  0.6792896969279500  0.4766963120263168  0.8641994724938125
  0.2256952433635120  0.1769644827954517  0.7948360906615257
  0.0523917724924766  0.3803321720635274  0.8759087139060175
  0.1134267590700673  0.7434236215414870  0.8291992890048742
  0.2156109067900323  0.0859857650609610  0.3966314036794672
  0.5690584760202798  0.1628522861057363  0.8651628943240720
  0.5717089957781388  0.1768338526586925  0.7540416022550149
  0.2501977505609052  0.3467151594772800  0.9233486095699769
  -0.0010264178980536  0.4917758605144288  0.5870568337085806
  0.4647692493734381  0.3330827388616136  0.5279187177658232
  0.7087614163205725  0.7877771090496553  0.3852189251562759
  0.4271280058881081  0.9288047112544723  0.6911518430229860
  0.6207862683503191  0.9761454424788676  0.5665175574827390
  0.6517550455546316  0.1096799978358484  0.4360577243580760
  0.5904319244248538  0.3822547245018322  0.6503722923095588
  0.6921930113353876  0.5017904338779388  0.7624496855725408
  0.0950419442238535  0.2251234264948926  0.3616822358454832
  0.4479926196508949  0.8796248069194755  0.8662561996831222
  0.3424727005600193  0.4337619794071836  0.7809140035071815
  0.6763377675359868  -0.0168877609200110  0.8865431315611302
  -0.0853860737126446  0.6482843604898155  0.8048775705616275
  -0.1030750388111641  0.3667019450901871  0.4274206739037732
  0.0842794350748694  0.6419720078243276  0.3769231976362493
  0.7063275893270903  0.3285207345350932  0.7331861255851656
  0.6726557896585369  0.3148185702583837  0.8906206302443026
  0.4284908727130691  0.7442471567883974  0.5235860638908308
  0.3071244770433894  1.0467755189188164  0.6165577538369946
  -0.2108152326545681  0.7038944876167151  0.6523986154894544
  0.3426648492964807  0.2358444060399728  0.6265193516934492
  0.7763012772741665  0.2514880887122569  0.6092498169056538
  0.8362834773008803  -0.0417053817806027  0.3811966316908240
  0.9076449480249584  0.9932097976890987  0.7023312017881638
  0.5982213270322899  0.7903045551895770  0.5980388726962454
  0.0410659442861283  0.3548543881452256  0.5159217949867254
  0.6381572982756221  0.0363308823809578  0.6861024170872061
  0.6477996935247139  0.6786790369744884  0.7944152516058891
  0.8719241214352846  0.8814032072927150  0.4879605312596159
  0.5827664142234912  0.8925662610265021  0.4697770688831951
  0.4610375894049407  0.0674289562800029  0.3749661316474369
  -0.1150194837805193  0.5560723915208092  0.7224091614764251
  0.8177813282500032  0.8160351702720560  0.8613683518730852
  0.8948612123146322  0.5363529242227073  0.8855285795306792
  0.8253349973762804  0.1008003955033516  0.5551108707935102
  0.0573192861347933  0.4260134125283646  0.6810941055957962
  0.4922323104073437  0.5455266341089091  0.7028409616762163
  0.3770847554669602  0.2759705104353669  0.7319996235656142
  0.2807520294370085  0.6465791569414727  0.8803920659303667
  0.3281027942770389  0.1823259852263795  0.8855822543935800
  0.7605505501548291  0.6519325708469357  0.5568240926023998
  -0.0754125736731192  0.2631570185800310  0.6968953698212426
  0.8117059490482895  0.5415658867837093  0.4399370515299226
  0.1006347515123818  0.3809774557751283  0.7778124251129841
  0.7689405404767105  0.4408201152937130  0.5760575676158274
  0.1646292136456606  0.1989302375812356  0.5486180620675543
  -0.0048664354980071  0.6375521425091421  0.5238771574324843
  0.3511958890632856  0.5460117149070611  0.5452598525519382
  0.3460861317164943  0.0031438323122109  0.7902610264521979
  0.0626980450522712  -0.1038918828211281  0.8811804327760868
  0.5433794270646537  0.7570382101223064  0.6997081929281725
  0.8874991215864955  1.0410572565800016  0.8562272012133290
  -0.0349823737073873  0.0701650093819223  0.4729494183397378
  0.2563581159570236  0.8006804706087388  0.3776733049061566
  0.5973064553046118  0.5097869773019068  0.4925451879067086
  0.2565685320985758  0.4287235770315733  0.4777405678659302
  0.0576321330079046  0.8149239661803913  0.5600720631421736
  0.5606896265187504  0.1634950189722117  0.6105525345993944
  0.2518828858202360  0.0034851981520999  0.9101298166100255
  0.9022716402854440  0.2303723102957898  0.8845245353631971
  1.0094131758102232  0.8186718181678894  0.6653024517956058
  0.1592205545892025  0.8886681710009314  0.7635572504029751
  0.4954292780241391  0.1426492481812665  0.5108134268536407
  0.0620949383308100  0.4415679931579630  0.3657332934135004
  -0.0080036596373094  0.1247318102018169  0.7599442761472404
  0.0752140135478769  0.9286324961197818  0.3750363842931306
  0.2382704033250901  0.0645402343034844  0.4924686401990081
  0.0348823056734365  0.0370179358962411  0.6032476214958732
  0.4028524145570809  0.4619389020057226  0.8823838603938086
  0.2927060159928481  0.4035366207671850  0.3596013373645708
  0.9243122772499138  0.7125060941636009  0.4302217592325250
  0.8775713730258619  0.1746471856191268  0.3951181161336115
