combine
1.000
11.0985002518  0.0000000000000000  0.0000000000000000
0.0000000000000000  14.4173002243  0.0000000000000000
0.0000000000000000  0.0000000000000000  26.7964000702
Pt  H  C  O  K  
96  166  6  81  2  
Direct
  0.0000000000000000  0.0000000000000000  0.0018699899937576
  0.1249999521128992  0.1666699702868031  0.0018699899937576
  0.2499999943280624  0.0000000000000000  0.0018699899937576
  0.3750000365432257  0.1666699702868031  0.0018699899937576
  0.4999999886561249  0.0000000000000000  0.0018699899937576
  0.6250000308712881  0.1666699702868031  0.0018699899937576
  0.7499999829841874  0.0000000000000000  0.0018699899937576
  0.8750000251993506  0.1666699702868031  0.0018699899937576
  0.0000000000000000  0.3333300219343480  0.0018699899937576
  0.1249999521128992  0.4999999922211510  0.0018699899937576
  0.2499999943280624  0.3333300219343480  0.0018699899937576
  0.3750000365432257  0.4999999922211510  0.0018699899937576
  0.4999999886561249  0.3333300219343480  0.0018699899937576
  0.6250000308712881  0.4999999922211510  0.0018699899937576
  0.7499999829841874  0.3333300219343480  0.0018699899937576
  0.8750000251993506  0.4999999922211510  0.0018699899937576
  0.0000000000000000  0.6666699625079541  0.0018699899937576
  0.1249999521128992  0.8333300141554991  0.0018699899937576
  0.2499999943280624  0.6666699625079541  0.0018699899937576
  0.3750000365432257  0.8333300141554991  0.0018699899937576
  0.4999999886561249  0.6666699625079541  0.0018699899937576
  0.6250000308712881  0.8333300141554991  0.0018699899937576
  0.7499999829841874  0.6666699625079541  0.0018699899937576
  0.8750000251993506  0.8333300141554991  0.0018699899937576
  0.0000000000000000  0.2222199683821562  0.0864100026098289
  0.1249999521128992  0.0555599860957249  0.0864100026098289
  0.2499999943280624  0.2222199683821562  0.0864100026098289
  0.3750000365432257  0.0555599860957249  0.0864100026098289
  0.4999999886561249  0.2222199683821562  0.0864100026098289
  0.6250000308712881  0.0555599860957249  0.0864100026098289
  0.7499999829841874  0.2222199683821562  0.0864100026098289
  0.8750000251993506  0.0555599860957249  0.0864100026098289
  0.0000000000000000  0.5555599783168760  0.0864100026098289
  0.1249999521128992  0.3888900080300730  0.0864100026098289
  0.2499999943280624  0.5555599783168760  0.0864100026098289
  0.3750000365432257  0.3888900080300730  0.0864100026098289
  0.4999999886561249  0.5555599783168760  0.0864100026098289
  0.6250000308712881  0.3888900080300730  0.0864100026098289
  0.7499999829841874  0.5555599783168760  0.0864100026098289
  0.8750000251993506  0.3888900080300730  0.0864100026098289
  0.0000000000000000  0.8888900002512240  0.0864100026098289
  0.1249999521128992  0.7222199606033073  0.0864100026098289
  0.2499999943280624  0.8888900002512240  0.0864100026098289
  0.3750000365432257  0.7222199606033073  0.0864100026098289
  0.4999999886561249  0.8888900002512240  0.0864100026098289
  0.6250000308712881  0.7222199606033073  0.0864100026098289
  0.7499999829841874  0.8888900002512240  0.0864100026098289
  0.8750000251993506  0.7222199606033073  0.0864100026098289
  0.8698222081163011  0.2789869492847640  0.1726286947120309
  0.9969239866355399  0.4476759998325812  0.1737928772782814
  0.1373691394882597  0.6195139677570015  0.1699161359388533
  0.1287723056246460  0.9475229731205286  0.1717720810908032
  0.9951025231187264  0.1227034326106566  0.1718884147174036
  0.7521580416368522  0.7832140582928209  0.1709333434379424
  0.1146245757658721  0.2856283982391676  0.1714674115613660
  1.0038568239247512  0.7833562223227094  0.1698179638712207
  0.2585052502688091  0.7850554223614733  0.1710595804395970
  0.8749876767561475  0.9531165719389867  0.1677452377492605
  0.3859418993125044  0.9557842571228726  0.1698239163834829
  0.8759301300572864  0.6108952455158869  0.1738640768832657
  0.2411618201266345  0.1203434845086775  0.1703961301271138
  0.4954495018286989  0.1186506925073800  0.1722476836331825
  0.6339166842888480  0.9530975214998804  0.1715012603618624
  0.2549396656400587  0.4492210903456063  0.1702103210898193
  0.7426970666746747  0.1152720636349716  0.1733344459192997
  0.7500342656612490  0.4525651016549318  0.1713283522104742
  0.6205225230303580  0.2849132439010050  0.1739309739326941
  0.3710454477876070  0.2804274128720448  0.1765552483395464
  0.3906827608258847  0.6238092113765819  0.1755897365307877
  0.5095694588088850  0.7867191936381212  0.1707089524643695
  0.4997488152329817  0.4529565485910570  0.1712955540287148
  0.6243519380806578  0.6213310327547772  0.1767620116430307
  0.9864410142194128  0.0181697669899719  0.2560423023438160
  0.1168343557130341  0.5147682496124435  0.2555190084064489
  0.8839446237169657  0.8516850227550963  0.2571644824396954
  0.2249087645689032  0.3469326891847293  0.2547504944588271
  0.8531794821705101  0.1761239779497820  0.2617721431320474
  0.6304826677699206  0.8498409645065770  0.2581958963097524
  0.7368499077588136  0.3412037540918201  0.2579108996131814
  0.2404696038428394  0.6840741535490118  0.2610671582627922
  0.1300758824928497  0.8469216938702437  0.2636614796163277
  0.7576596574961749  0.6834390006106992  0.2590156190987261
  1.0081937362649742  0.6837309697196523  0.2518884212176797
  0.9832541356955091  0.3403217146945572  0.2592227163015392
  0.2442915316562952  0.0172475174152845  0.2572446946545589
  0.8760841343426602  0.5067977318655552  0.2615619331417038
  0.4897019018960275  0.0063805505378152  0.2583341773396777
  0.3711612654450235  0.8498850287481559  0.2586826210924034
  0.6106534846995046  0.1751478311899136  0.2586121250856618
  0.3479383749956406  0.1825893597931101  0.2615175571584790
  0.1029044693056408  0.1831703262063560  0.2586894774872743
  0.7453329242532927  0.0103545010353870  0.2622825652097955
  0.3588032161871739  0.5150249884361077  0.2588072966529731
  0.6343250058455614  0.5149032481953765  0.2632283333104958
  0.4924361587245641  0.3456238801076875  0.2643188640431108
  0.4984038388432593  0.6842781500431018  0.2718285711930571
  0.4474783154773131  0.9024392114531073  0.4151434614521700
  0.4464536615202926  0.8843771441625136  0.3577954411668269
  0.2041271962337948  0.7931905891108149  0.5287231304385528
  0.2277674784744018  0.8848843564620587  0.5629371563971955
  0.3445207625940147  0.7219891373945078  0.8424582494573686
  0.3216462818317309  0.8015506543119855  0.8777455155499344
  0.6310708467807685  0.4900764372646650  0.8782728579452928
  0.4918104546346017  0.4842772950605594  0.8798332803673516
  0.1850163372359225  0.1834954211150477  0.7532010184474515
  0.1717556105556550  0.1941089570558538  0.8135645639708232
  -0.0030412143113234  0.3992447081873453  0.8441259005255318
  -0.0690022340609305  0.4416704419089094  0.8901840013176802
  0.1317498076159299  0.7819731579771123  0.8285166289291895
  0.0546963324437954  0.8393343057602544  0.7873792428470233
  0.1947022953438718  0.0584177014764838  0.4154803125096386
  0.3250752322337304  0.0940612876892381  0.4006730394147255
  0.5499249454907328  0.0585419755064426  0.8766179550372968
  0.5625626299992548  0.1666950505649671  0.8710558631290725
  0.4839414726984310  0.1214009465204836  0.8007479691931563
  0.5032622165678761  0.1848358547814998  0.7513347032719434
  0.1330648804788271  0.3580758027150436  0.8973579016474404
  0.2734125904090381  0.3833557740709633  0.8929837629760915
  0.0104082278577473  0.4204226091778078  0.5737218588103150
  -0.1039553350564533  0.4909127185664637  0.5724032256839461
  0.4105714588113805  0.2862032659655142  0.4812183175433444
  0.5426514502644830  0.2571030208174757  0.4588273005325463
  0.6509446215697746  0.8628370875452158  0.3771073238654097
  0.7454141696900222  0.8214515968626862  0.3434687517572694
  0.2675010651568439  0.8209290564922429  0.7019153138864006
  0.2704414064515793  0.9167504417313141  0.7284629898554245
  0.7666269945274876  0.8813828435494737  0.5667448415202979
  0.8148569173959569  -0.0197143865687794  0.5740379887224603
  0.5834334265613788  0.1525539770332963  0.4067401114458227
  0.6505056261749500  0.1227833882668520  0.4512097921334609
  0.3593664887968210  0.3739454012071641  0.6537718941688141
  0.4318844720414011  0.3315828801943471  0.6125657556387382
  0.5623488276974875  0.4713999729120560  0.7933035281869988
  -0.3636550857711988  0.5065174521504120  0.7533406101347752
  0.1724316102339704  0.2654088785881398  0.3370257405898103
  0.1891225706608043  0.2919707076159177  0.3927652276920736
  0.3605348347720259  0.9405515751100610  0.8915510390094609
  0.4660292181334272  0.8954713602509329  0.9150503732614629
  0.1333961726188984  0.5847855902930917  0.7772105131039924
  0.1189108553190293  0.4766022337815069  0.7675407203437269
  0.7339273977652008  1.0108255812303151  0.8752716880683946
  0.6776685589640993  -0.0529500240283069  0.9166120990675549
  -0.0834132609268406  0.7192002825413480  0.8059931085041007
  0.7761484172695254  0.7167925690194021  0.8119690913518147
  -0.0000807971148944  0.3954800039947726  0.4585292542509906
  -0.0134190975736425  0.4561890129966640  0.4151139293397248
  0.0954039503425945  0.7392425720896347  0.3638914606833313
  -0.0126161265687489  0.7015096747623605  0.3316940422077249
  0.4962836310344444  0.2878445992201353  0.6929068420630360
  0.5625005507647305  0.3420996366564510  0.7396759544966768
  0.5779651615865542  0.2718563207689808  0.9261250852049536
  0.5940739891077326  0.3418626199787904  0.8785108405281508
  0.4995568190036125  0.7611230517905641  0.6018577116049018
  0.4117930326810393  0.7712116693082077  0.5542337988010623
  0.2403506994260209  1.0249977265363841  0.6058189200329712
  0.2084226806612758  -0.0670606611403171  0.6332566074788175
  -0.1865251587271221  0.6887350197135896  0.6403842536850108
  -0.2714638523535074  0.6280162545924656  0.6708173135051210
  0.3286852713282920  0.1464876874340419  0.6393772774706944
  0.4127696050335283  0.0858549623398786  0.6004597589544761
  0.6534745868590439  0.2699388908361973  0.5936883292129942
  0.7538530167572023  0.2272524751047193  0.6280077568521837
  0.8478766558728348  0.0448096900147175  0.3396718591323847
  0.8038681587859617  -0.0311533827840370  0.3800699587936845
  0.7885484583721671  1.0057100842750881  0.7163300749919254
  0.8740945791145637  1.0876319374324011  0.7388455058229108
  0.5941907847621535  0.8372644796877069  0.6755114936774751
  0.6290026410701567  0.7347826752712536  0.6523499274792521
  0.1629697860219136  0.4126717514678703  0.5165016944306542
  0.1393687478494345  0.3012213225455569  0.5100559581881922
  0.6357408971501051  -0.0822955248445350  0.7489475599902927
  0.5798043461823910  0.0029348433091990  0.7227263727091926
  0.4589156382975214  0.6136578601164255  0.8167391613935048
  0.4344959612374570  0.6980277831239114  0.7783226717194006
  1.0176183696773162  -0.0311241276118870  0.4634636893300909
  0.9107203049673944  1.0049622415699868  0.4922696517048062
  0.6162318181675747  0.7876885032233129  0.5330088516846583
  0.6628366785058993  0.8732091480886982  0.4988991400254243
  0.4690743723734804  0.0293902739838778  0.3682936129795714
  0.4387351541763740  0.1179655814084690  0.3372282048717955
  -0.1781318463257558  0.5121447452314881  0.7165909018075307
  -0.1855903864908177  0.6114197501791979  0.7454368321405239
  0.6826475008613199  0.8686257351284392  0.8376120141250182
  0.5889629168085000  0.7858297075137783  0.8281531378119319
  0.8335846368521320  0.5803202004005035  0.8590813309210374
  0.7979942288566070  0.5791607374469733  0.9164218796729107
  0.9118337331621630  0.0998886759861396  0.5763467668022740
  0.7886669801697215  0.1377873167718161  0.5584122478840240
  -0.1460862284647013  0.3799684623385152  0.6900514256190530
  -0.0807871607025988  0.4525009377001269  0.6548043593965135
  0.4248929056820260  0.5029674367658580  0.7221498147066427
  0.2833006248200119  0.5151049577911231  0.7147770602552078
  0.2837614430552659  0.2327426966350019  0.6953884394726056
  0.3472269345018028  0.1583440377104889  0.7317465112900013
  0.1125494603378876  0.5941702296912471  0.9161633567003526
  0.1983866501010264  0.6588860638893451  0.8873343019476172
  0.2525849752848676  0.2161902657230219  0.8874862631397674
  0.3546558621613419  0.1440654243087211  0.8650433608460074
  0.7397329700621921  0.5258984988410429  0.5280507970709063
  0.7216709568665363  0.5595315296204614  0.5832546723685093
  -0.1703971988371388  0.2541738132513587  0.7090695884941005
  -0.3026586436446865  0.2851705677509827  0.6964959141080886
  0.6539881355161316  0.5277344389815822  0.4562280147472345
  0.7936097103274383  0.5003274680471759  0.4541413770625635
  -0.0386984497865234  0.3739654106538366  0.7547813602056376
  0.0700011447198911  0.3169253117652856  0.7795894433085349
  0.5797921833228209  0.4025360446832045  0.5731639211746313
  0.5397563581465377  0.3216421724078475  0.5396232065844088
  0.2646069538651141  0.1427576246509031  0.4830274401894087
  0.2937312026524740  0.1604684450005845  0.5419485109587562
  1.0596597900416871  0.5710567880055185  0.5621356268580138
  0.0827286848825442  0.6767023526746105  0.5511947193020753
  0.4702700160459530  0.5949185259625432  0.5810017407903180
  0.4242239233302172  0.5365292424903755  0.6250062079878105
  0.4234461608934771  -0.0251581649724306  0.7887133146068995
  0.3473603086123958  -0.1042805079529372  0.8127843200109919
  -0.0189083169382246  -0.0854012340274880  0.9164230213262641
  1.0227391852569512  -0.1151086698189762  0.8629776223753552
  0.4513055526838096  0.7448162466715484  0.6948955504365636
  0.3685598891018263  0.6580881342131212  0.7076278630832695
  0.9095615569917014  1.0307751764891573  0.8572870982377649
  0.8681781714639578  0.1364852867517739  0.8703960529436117
  0.9575489846906488  0.1406878665661193  0.4961238547555681
  0.0768403877597504  0.1735039872155713  0.4708222163666865
  0.1598457154796458  0.8886664659660346  0.3793619333928734
  0.2515943543045043  0.8389462051788037  0.3401966083771775
  0.4389129156536223  0.5139202530867559  0.4663302127212468
  0.4990190900884797  0.4252988025154140  0.4468188925017283
  0.3716866535756453  0.5081650665255336  0.5481319653468800
  0.2394949968189539  0.5479684949394593  0.5337244092166316
  -0.0141560785363337  0.7986994519189942  0.5837041729271083
  -0.0357020525755934  0.8590492796720084  0.5347569384156103
  0.6179308917786188  0.0001515734961471  0.5987674918372066
  0.6219255837544837  0.1074898417103084  0.5915912918925785
  0.2165278826218209  0.0649504373378938  0.9031086000918696
  0.1592294339600873  -0.0381744668029012  0.9006630296970285
  0.9091328343722441  0.2876782400916795  0.8879945994448053
  0.7625008580080446  0.2624950396761088  0.8846302503395589
  0.8978722881304462  0.8574278905813797  0.6368822699351728
  -0.0411498225740843  0.8052105021391859  0.6801342522709982
  -0.0397954381654736  -0.0671074923285074  0.7344182330702572
  0.0953362815510496  0.8812986482437567  0.7160295396633400
  0.5433438543304066  -0.0196422384492413  0.4821070301852520
  0.6296099885627972  0.0285457738062732  0.5176492600372073
  0.0714328494403035  0.5820462123176346  0.3671558442337650
  0.0245229118191765  0.5017284047888522  0.3391964181490205
  0.8661762421585638  0.1956728858254022  0.7995669167936889
  -0.0111253593727652  0.1907399423204783  0.7751018495315732
  0.1009569297724057  1.0320245031397630  0.3451526102748984
  -0.0098678485484773  1.0155439067102372  0.3825631729838361
  0.3362558824193151  0.0014263007830926  0.4620413165038848
  0.3334255278229897  -0.0944017386144209  0.4938939699895748
  0.0594582261502382  0.0401926480467764  0.6099420830888501
  -0.0470567859576611  0.0565023624691530  0.6493686843088743
  0.2893554783655711  0.4795131199354392  0.8296331976481821
  0.2606884073486200  0.5235835284387655  0.8788203056233976
  0.5033839270845544  0.3383188814074116  0.3635979124425455
  0.6934419971700053  0.4237596994340618  0.3521080751959970
  0.6914381841416286  0.5978033618370088  0.3530622886214203
  0.3045375306768887  0.5892749343306745  0.3526045243632415
  0.5030919237123442  0.6764742124993469  0.3698580250681422
  0.2306275330295073  0.4650690413104405  0.3617052040650346
  0.4965387341687207  0.3997613198819152  0.3397148058527273
  0.6103942508089135  0.4599596280184955  0.3405478032942315
  0.3895807238278662  0.4534493495169908  0.3446128840257712
  0.6072319198449342  0.5614351515588977  0.3429158323143149
  0.3890003144253476  0.5551826281878393  0.3345819690112234
  0.4961311770396152  0.6193954394629787  0.3412579360751329
  0.4956249051585032  0.9152246840264893  0.3844220157078404
  0.2680726950398067  0.8370454942361396  0.5433809342618657
  0.2746950169511010  0.7486451668536334  0.8617871276105201
  0.5598691266499936  0.4591364938730334  0.8619353507744375
  0.1288214018167114  0.2061441188753702  0.7800826124045842
  -0.0112916301353127  0.3938078501778349  0.8804579034904635
  0.0537647003795151  0.8107996727152541  0.8219985099190825
  0.2676091830351856  0.0842053836441451  0.4286381458818946
  0.5097938730309414  0.1145040825200790  0.8619830061571253
  0.4770662479771787  0.1221668700448746  0.7629800597445477
  0.2204533007784708  0.3339323308316382  0.9073333929596960
  -0.0271557793361423  0.4742026831609482  0.5935675127864773
  0.4924989930070507  0.3077784053994371  0.4780207504270328
  0.7283126344380663  0.8324300046115396  0.3784107089846236
  0.2512130035540447  0.8852047722214679  0.6959786810968002
  0.7966993873668597  0.9241999630584055  0.5945034778054461
  0.6410469976469222  0.1804369046858983  0.4299930138755389
  0.3897221191213200  0.3146908520676439  0.6428619663302194
  0.5584445884113756  0.4683745934428484  0.7559732016662940
  0.1413947011935680  0.2526316847908217  0.3721736872592366
  0.4251543363018550  0.8975471361128767  0.8839827513787080
  0.1751212605761559  0.5321113926010705  0.7638344382222546
  0.6653856789075898  -0.0322687090344328  0.8802059875807773
  -0.1526840963242010  0.6807518513388332  0.8032394051966903
  -0.0652843672443480  0.4141215985872893  0.4372166057047736
  0.0218753827086344  0.6959330555445343  0.3660411022452238
  0.5628913660281979  0.2852332765096222  0.7184075716203591
  0.6144932173690686  0.2775973874119916  0.8895145655892611
  0.4872035769268044  0.7497449301209111  0.5647399657101422
  0.1945723941529640  0.9652484604811422  0.6007837466795906
  -0.2650638372173650  0.6566955970606964  0.6382925783273820
  0.3321284416515798  0.1158579819531434  0.6056324907108641
  0.6940869033859456  0.2055441595441896  0.6039122433201982
  0.8498910831911903  0.0283620642171828  0.3779609905348158
  0.8755046202232677  1.0256184217678614  0.7185326786903841
  0.5616545500180551  0.7797485268741308  0.6575487924810823
  0.1022335952297680  0.3627947171263097  0.5101345923739216
  0.6337464776161316  -0.0499669599226215  0.7165129506650442
  0.4616992051307960  0.6830792262757471  0.8120240785663712
  0.9533819422028585  0.9457629355680588  0.4843472844971272
  0.6886574837857409  0.8208933825108455  0.5197874743738308
  0.4608489182014003  0.1013776929425748  0.3709828441304430
  -0.2386270507107905  0.5685323129974545  0.7255214154725410
  0.6670688120495628  0.8116432404575352  0.8171411267497385
  0.7976601723250141  0.5402423996603823  0.8844171946087502
  0.8605397513011749  0.1013123995044584  0.5463780070585699
  -0.0899515889489742  0.4391378693237552  0.6928749564665468
  0.3580519114423146  0.5154502639318392  0.6973748756603232
  0.2767684209947030  0.1674915257178286  0.7062632525906584
  0.1502943775064987  0.5992517013995576  0.8834433408025808
  0.2662382088535585  0.1579307067256797  0.8664718058124853
  0.7507309125887243  0.5077998374522620  0.5637851760767223
  -0.2177794443900649  0.2916425259850722  0.6824782456594926
  0.7341822275652489  0.5456695109490909  0.4677777423184459
  0.0284494728059128  0.3813013596355840  0.7783084893255341
  0.5573022524819833  0.3378510468895015  0.5744106072448678
  0.2733554547793933  0.1901576896747401  0.5096079880889044
  0.0993607282858917  0.6124427689532081  0.5367769622605372
  0.4590744823989769  0.5322990311435100  0.5921449246067167
  0.3438781631582176  -0.0510970173499157  0.7895972149494064
  0.0167125325306829  -0.0587077152748337  0.8860429227918595
  0.3878628649579790  0.7209059913576596  0.7182322647848254
  0.8411748711530538  1.0764760011338068  0.8545519745305508
  -0.0002316627780031  0.1477128515580592  0.4629233298951644
  0.2075369602416717  0.8310587803120915  0.3705170664077899
  0.5023397769798480  0.4942052162089829  0.4418955385864868
  0.3027395449898799  0.5040317017365034  0.5237793414611922
  -0.0016390104326979  0.7995268368186921  0.5467294071449745
  0.5757742035608465  0.0519155676968183  0.5796290602584691
  0.2309416294768570  -0.0016168466312931  0.9144311588574185
  0.8466853163134330  0.2437312802765479  0.8770090171453616
  0.9123816628339233  0.7917459555056343  0.6497891343607650
  0.0174013247662609  0.8764811532814936  0.7322455208011660
  0.6294703670945949  0.0003048393063628  0.4836402129931057
  0.0725852387190194  0.5142672206411646  0.3692605774274868
  -0.1017788278120549  0.1958769907655935  0.7673924683811649
  0.0828913443463495  1.0033747134652848  0.3796536616839692
  0.3902415516184328  -0.0546558718859071  0.4733747135648481
  -0.0068181189154568  0.0826306133510403  0.6214624444094481
  0.3206767755961245  0.4791819127450699  0.8626917553753131
  0.2850729122600928  0.4130488273569357  0.3590471223296746
  0.8456874838992557  0.7305295503903103  0.4587820848805622
  0.8639123481882118  0.2271251173906235  0.3945907226978150
