combine
1.000
11.0985002518  0.0000000000000000  0.0000000000000000
0.0000000000000000  14.4173002243  0.0000000000000000
0.0000000000000000  0.0000000000000000  26.7964000702
Pt  H  C  O  K  
96  166  6  81  2  
Direct
  0.0000000000000000  0.0000000000000000  0.0018699899937576
  0.1249999521128992  0.1666699702868031  0.0018699899937576
  0.2499999943280624  0.0000000000000000  0.0018699899937576
  0.3750000365432257  0.1666699702868031  0.0018699899937576
  0.4999999886561249  0.0000000000000000  0.0018699899937576
  0.6250000308712881  0.1666699702868031  0.0018699899937576
  0.7499999829841874  0.0000000000000000  0.0018699899937576
  0.8750000251993506  0.1666699702868031  0.0018699899937576
  0.0000000000000000  0.3333300219343480  0.0018699899937576
  0.1249999521128992  0.4999999922211510  0.0018699899937576
  0.2499999943280624  0.3333300219343480  0.0018699899937576
  0.3750000365432257  0.4999999922211510  0.0018699899937576
  0.4999999886561249  0.3333300219343480  0.0018699899937576
  0.6250000308712881  0.4999999922211510  0.0018699899937576
  0.7499999829841874  0.3333300219343480  0.0018699899937576
  0.8750000251993506  0.4999999922211510  0.0018699899937576
  0.0000000000000000  0.6666699625079541  0.0018699899937576
  0.1249999521128992  0.8333300141554991  0.0018699899937576
  0.2499999943280624  0.6666699625079541  0.0018699899937576
  0.3750000365432257  0.8333300141554991  0.0018699899937576
  0.4999999886561249  0.6666699625079541  0.0018699899937576
  0.6250000308712881  0.8333300141554991  0.0018699899937576
  0.7499999829841874  0.6666699625079541  0.0018699899937576
  0.8750000251993506  0.8333300141554991  0.0018699899937576
  0.0000000000000000  0.2222199683821562  0.0864100026098289
  0.1249999521128992  0.0555599860957249  0.0864100026098289
  0.2499999943280624  0.2222199683821562  0.0864100026098289
  0.3750000365432257  0.0555599860957249  0.0864100026098289
  0.4999999886561249  0.2222199683821562  0.0864100026098289
  0.6250000308712881  0.0555599860957249  0.0864100026098289
  0.7499999829841874  0.2222199683821562  0.0864100026098289
  0.8750000251993506  0.0555599860957249  0.0864100026098289
  0.0000000000000000  0.5555599783168760  0.0864100026098289
  0.1249999521128992  0.3888900080300730  0.0864100026098289
  0.2499999943280624  0.5555599783168760  0.0864100026098289
  0.3750000365432257  0.3888900080300730  0.0864100026098289
  0.4999999886561249  0.5555599783168760  0.0864100026098289
  0.6250000308712881  0.3888900080300730  0.0864100026098289
  0.7499999829841874  0.5555599783168760  0.0864100026098289
  0.8750000251993506  0.3888900080300730  0.0864100026098289
  0.0000000000000000  0.8888900002512240  0.0864100026098289
  0.1249999521128992  0.7222199606033073  0.0864100026098289
  0.2499999943280624  0.8888900002512240  0.0864100026098289
  0.3750000365432257  0.7222199606033073  0.0864100026098289
  0.4999999886561249  0.8888900002512240  0.0864100026098289
  0.6250000308712881  0.7222199606033073  0.0864100026098289
  0.7499999829841874  0.8888900002512240  0.0864100026098289
  0.8750000251993506  0.7222199606033073  0.0864100026098289
  0.8750504705376664  0.2795455354884712  0.1729330595288956
  1.0000167798437423  0.4478865771010550  0.1730713139283782
  0.1243680181451667  0.6119329920681008  0.1695586710153969
  0.1223661511274679  0.9471372461943024  0.1707061312085366
  1.0012038438885318  0.1203916382399031  0.1723989340432892
  0.7487434024297347  0.7781749310519558  0.1709954673462151
  0.1270130365561218  0.2804174344920595  0.1728628985485000
  0.9982192688605116  0.7792908874411335  0.1718618600310227
  0.2529093655374530  0.7799585787460406  0.1699357801671310
  0.8672332730666902  0.9471339606554523  0.1710896486539052
  0.3753544881998234  0.9439933731740539  0.1707691564095179
  0.8721948576277274  0.6185034678732961  0.1708459039686905
  0.2450094459437421  0.1180240844906604  0.1684845741022071
  0.4951221056024015  0.1123472214839476  0.1703650482094749
  0.6172912727905624  0.9446288350398307  0.1688302904102086
  0.2470457024006750  0.4468394528777171  0.1748378326314872
  0.7492479038464096  0.1179540674081071  0.1713614856238310
  0.7553446634774261  0.4501077405437103  0.1705492390555240
  0.6283137698959852  0.2799766065560991  0.1701598975964971
  0.3786480065465092  0.2815888869996194  0.1724602099010797
  0.3772078966454071  0.6073305136243100  0.1754279115621860
  0.4982310590661277  0.7707115564030296  0.1713926143649236
  0.5026348687152804  0.4487457033318540  0.1725832299892768
  0.6253613984623146  0.6090583756728518  0.1721271620261182
  0.9935808868690662  0.0114683540071753  0.2574524761171962
  0.1041271298536549  0.5114623398402611  0.2591435832502919
  0.8711909022421166  0.8450616137593502  0.2575902139883405
  0.2430438299591444  0.3431736290655084  0.2555662553686036
  0.8697762227679727  0.1756107868748310  0.2576698401655289
  0.6157005057770520  0.8444309930288006  0.2567944395169885
  0.7429148682825639  0.3425560392836856  0.2557737821328492
  0.2276345780764620  0.6771340091708463  0.2556142011895584
  0.1194533600866463  0.8417388671039635  0.2560444578908241
  0.7404549647658187  0.6823681205041742  0.2588025463245832
  0.9929469281502872  0.6751553615560926  0.2563327732906450
  0.9902239793180700  0.3432565142577018  0.2563696539536225
  0.2392948190427143  0.0077158279268198  0.2548152893340884
  0.8622150479699284  0.5139394950527055  0.2555605993961743
  0.4941741166704471  0.0062602147972113  0.2573389917949725
  0.3682638865676581  0.8405932111459803  0.2577104252589426
  0.6183430578637850  0.1759390675394746  0.2555569750921728
  0.3646038354726093  0.1821114619139783  0.2552296224710364
  0.1161037885808952  0.1709444203531290  0.2548113095681601
  0.7332790514808609  0.0130314938564805  0.2565349990219299
  0.3553121481760959  0.5101588988833803  0.2606520666956093
  0.6207933224475596  0.5165186005732612  0.2612933616701201
  0.4928142077135994  0.3507930766105382  0.2641106518173871
  0.4847850086526228  0.6784826064045523  0.2671467110226113
  0.4803316730686565  0.8631895830971525  0.3703387497388537
  0.5573129659475240  0.8867757476917453  0.3262934867069531
  0.2321807084684324  0.9136151752877527  0.5404005372349973
  0.3080134916107765  0.9895721246376903  0.5615732723379840
  0.3563837211751659  0.7789122390870680  0.8783312136011237
  0.3717643099508715  0.7063357186275445  0.9202251492290081
  0.5957010520072510  0.4781591000776091  0.8083275738030259
  0.6700184525737130  0.4877922369783663  0.8615453571606452
  0.2057420775504928  0.1684156413769826  0.7632391472183059
  0.1974106816409416  0.1391020778924905  0.8208596142009992
  -0.0034260416846711  0.4124738692114412  0.8519546210831599
  -0.0610344610200948  0.4516221289770731  0.9013837975072344
  0.0130482910136001  0.6989476648072829  0.8523076857252467
  0.0065140189719124  0.7769439821347592  0.8086335001020259
  0.2306163385530302  0.0195667689103489  0.3845828018055517
  0.3481690907267669  0.0749103116809401  0.3719636815276735
  0.5233063484192874  0.1106984422166660  0.8507146541430876
  0.5470997342830370  0.2200866116703248  0.8506970089855752
  0.5205299539695055  0.1779736246024232  0.7771416913034831
  0.5531836708751949  0.2478591655098520  0.7338013848236010
  0.1470209216452792  0.3711075260943854  0.9119448225687582
  0.2790698997819704  0.3912691585760391  0.9019966710931256
  0.0997293290433982  0.4831498936992002  0.5862492649216051
  -0.0074363698182207  0.5516187913736903  0.5924804303790014
  0.4124065635676918  0.3576402533540463  0.5020876051168608
  0.5275469000552948  0.2935516522480884  0.4888052661695553
  0.7009776300665704  0.8445870746921489  0.3845594794339510
  0.8071714790516035  0.8073680757220382  0.3538747945678520
  0.4102100115519322  0.8812287576342581  0.6901160387087018
  0.3526088347986751  0.9265913067263336  0.7321204720524078
  0.7661755755081308  0.9150497135701101  0.5491512615631048
  0.8429808548035699  -0.0053716832135789  0.5732024514696447
  0.6242730218415148  0.0960217220882085  0.4176560790248147
  0.6185362777539816  0.0998678146740131  0.4710291794320786
  0.4701371456790977  0.4834581406130370  0.6196861845620317
  0.5926580515807273  0.4251219226585528  0.6031453496909732
  0.5277817199986090  0.5748079689796683  0.7760107182615593
  -0.3806195714249666  0.5464095345064847  0.7376046509837199
  0.1785374421718495  0.1490921172590317  0.3535285054590280
  0.1450890147827712  0.2481145772057112  0.3370633705586628
  0.3504230532741789  0.9177394889716545  0.8939023174138339
  0.4816796742995051  0.9007793562217052  0.8701021653326129
  0.3189037636076976  0.4299921221555192  0.7923327502305623
  0.1914286882279818  0.4295363754555285  0.7734731632944046
  0.6722144772839928  1.0082040770851564  0.8814401369595506
  0.5514520251605514  0.0149151464389680  0.9169157448139494
  -0.1587805754488490  0.7330961757448708  0.8134952488876354
  0.7087993817294513  0.7262223475552516  0.8296366273551488
  -0.0177110583088125  0.3899163642805352  0.4582249933473379
  -0.0314631879963571  0.4143447202848300  0.4049854139238862
  0.1725620581654164  0.6741248401846254  0.4013619137803732
  0.0866182345712960  0.6928104489261246  0.3561664324609692
  0.5545714497507689  0.3752390389000633  0.6737047771195356
  0.5538481432122393  0.4146782802527285  0.7238034922709392
  0.6006705618553094  0.2915495092982351  0.9147799491641581
  0.6028082813274653  0.3614440625587382  0.8642792786690598
  0.5371667708196068  0.8335204338913228  0.5809858037353822
  0.4319457296784309  0.8828245377000171  0.5498225378857778
  0.2771856234179988  1.0850934646024939  0.6276627888984367
  0.3033159189732893  -0.0150459271309606  0.6538144514562487
  -0.1290357115654194  0.7456303993573763  0.6280804123803478
  -0.1993111558781322  0.6693237689699651  0.6613276776124701
  0.3215337645481640  0.2402153317694507  0.6606547305131300
  0.4200702312858779  0.2040724564118488  0.6226759804782787
  0.7410336236525416  0.3032480208417297  0.5861779990017429
  0.7753037076702730  0.2643452802124777  0.6401488510195978
  0.8929598559762767  -0.0065838056864498  0.3315022870134995
  0.8755311521684241  -0.0500621910254382  0.3857074514346456
  0.8148657781877547  1.0092132831274554  0.7259630440073067
  0.9067165458655470  1.0821978303470849  0.7544880472166013
  0.6867203057245417  0.8882119622657541  0.6339063259281014
  0.6698350703820812  0.7852849227497931  0.6318542439523157
  0.1514990026267109  0.5005360110304824  0.4885118215359701
  0.1700298300749190  0.4014380427789840  0.5112572618862885
  0.5971492630299423  -0.0061663605679902  0.7040249142189791
  0.6472617711870510  0.0829882325460204  0.7152261844908689
  0.4183935346622072  0.6682507165843372  0.8272021948258127
  0.4633793218742250  0.7120435286418841  0.7742511576199628
  0.9507750935797478  -0.0107714166857852  0.4775440997550568
  0.8616913840632616  0.9027649214908360  0.4783286603656211
  0.6091470070114685  0.8712331149162751  0.5088371931296602
  0.6586980236734546  0.9467557830067127  0.4686801872079328
  0.5313522681358290  0.0228221405104280  0.3610592012753073
  0.5244456916740617  0.1206720788242773  0.3374262325802226
  -0.1937347781968358  0.5617982363472117  0.7099671264595360
  -0.2547211615228374  0.6316314362623424  0.7523159962639540
  0.6128014080187958  0.7361448675329435  0.9039021963751126
  0.7269068512920535  0.7922266985984582  0.9151492661796555
  0.7896864608692120  0.5990951574513228  0.8794975814646471
  0.7838310966014622  0.5485411402247454  0.9278730803825630
  0.9457746957385170  0.0962870615235039  0.6006439006110821
  0.8228131577074060  0.1587798569486435  0.5860120456614304
  -0.1162862763633929  0.4219464928008296  0.6898763502063964
  -0.0234959577315599  0.4976349244574564  0.6674064922283615
  0.4188620585241729  0.5472046572147348  0.6956967888881374
  0.3033570537383155  0.5413010613281386  0.6626419971668781
  0.2963150922996675  0.3218215918247812  0.7398853073942788
  0.3702902101419944  0.2164243466221844  0.7390307500977759
  0.0821001773687593  0.6187981048326375  0.9096021924939890
  0.2001492570709931  0.6657922290070126  0.8883287289762551
  0.2385070917010330  0.2261862387386284  0.8898652660593013
  0.3596785412923317  0.1808189552719516  0.8700926018241070
  0.8285082982999153  0.5524730397286799  0.5412943849323466
  0.8264305597517488  0.6082873229912088  0.5929953965932634
  -0.1443261376455087  0.2591353723218588  0.7229696487195120
  -0.2524012835469078  0.3356103082839788  0.7165341291553829
  0.7166520839615267  0.5259317311031547  0.4534346375023842
  0.8369978046532371  0.4770983590607699  0.4629041002225721
  -0.0338260987144739  0.4507876017346064  0.7508333692097258
  -0.0168775081182361  0.3513472779225518  0.7730170763734755
  0.7440260835837483  0.4462621495636076  0.5538610199138301
  0.6343213149054280  0.3813784162330549  0.5305797518791070
  0.2433589341732865  0.2652171897866996  0.5219001029676603
  0.3038037728433761  0.2988952881162067  0.5699031484189219
  1.1236887269230236  0.6355972187674213  0.5525881354774638
  0.1258553722673890  0.7358381125766622  0.5359835535099474
  0.4489630561743571  0.7024573188071846  0.5427973603504809
  0.4895522305384284  0.6242042935356118  0.5773791734400137
  0.2606170959117552  -0.0066712053438334  0.7862945596983968
  0.3250987410947548  -0.0927276305064882  0.8093384195520459
  0.0304896655244134  -0.1194628528229614  0.9266443349237049
  0.9821174632610553  -0.1441834833123848  0.8749111380402307
  0.5189387773420927  0.7773719267848680  0.6941256384989171
  0.4143862439390497  0.7075079351477718  0.6887274811710279
  0.8935281192962669  0.9823411871959986  0.8934072222568260
  0.8369003865899430  0.0848029377677305  0.8947983461802763
  0.9645342517845001  0.1266119059949470  0.5084722986223987
  0.0957518437797617  0.0938037209921293  0.4899559221091301
  0.2679806663893741  0.8265657276120569  0.3945125707783589
  0.3056061033967097  0.7937300460326380  0.3410492073210709
  0.5322157883396913  0.5916022075633873  0.4844913124594613
  0.5365328140109957  0.4878134848330433  0.4655944286962155
  0.3513313170910280  0.6058926667335961  0.4425987327599815
  0.2503521992036146  0.6401075767393251  0.4811791809318126
  0.0672692871885024  0.8513308118542653  0.5897103481513313
  0.0410571589639868  0.8928697258314193  0.5366382945182185
  0.5739453544695733  0.1029924975549363  0.6480746821813810
  0.6097238950102737  0.1990300246133163  0.6214390143218858
  0.2273310109346354  0.0617085913214515  0.9077370040257968
  0.1514906260084390  -0.0310423525373822  0.9041783695319773
  0.9054299697628267  0.2399137160693995  0.8932023255361614
  0.7735312960512519  0.2411439105943152  0.8791540278949183
  0.9616164169090404  0.8919818026002430  0.6373269425392832
  -0.0006110879980293  0.8336808626445578  0.6839819626399243
  -0.0299285992579158  -0.0944451426769197  0.7528729926388736
  0.1078488756177549  0.8812817736835953  0.7617623816977012
  0.4279257969498836  0.1572155334796776  0.5139666747256922
  0.5312477844692353  0.1463845146432379  0.5512615715320505
  0.0672415475125988  0.5478404507029324  0.3837863841060066
  0.0507467128190276  0.4888721660536975  0.3361828513419699
  0.9122902300477830  0.2076700472224070  0.8184699969937530
  0.0175790406427533  0.1677358447820917  0.7864653758598219
  0.1462931920677005  0.9015014357399255  0.3462558856970652
  0.0655627655621296  0.9307325424480790  0.3866261334119078
  0.2686418080151365  0.1001151344179684  0.4537810489112183
  0.2690470722488577  0.0435201889770222  0.5012394851290840
  0.0990451739388589  0.0290046678361589  0.6450784288343022
  -0.0132817731004775  0.0353715374075704  0.6822495705246256
  0.2890318454044944  0.5240923435487982  0.8688504874985705
  0.4266728800796296  0.4935639592152209  0.8738468523367299
  0.4937467498648077  0.3425143597673648  0.3644104837037208
  0.6788565483501302  0.4283348864991701  0.3574218961542961
  0.6760050178206006  0.5917309398136094  0.3589017910542123
  0.2936826835383791  0.5900714250828504  0.3447238936200528
  0.4774342959122444  0.6712706673256428  0.3664355592309498
  0.2136164102997151  0.4369463108968352  0.3708667587461433
  0.4922350718254906  0.4064398489062128  0.3424396910764406
  0.5995040521372148  0.4599134523552547  0.3431657299267724
  0.3767730492074195  0.4578289132645485  0.3410257079144958
  0.5962025838064773  0.5596534090203950  0.3413040388947940
  0.3752009274878953  0.5562703911709231  0.3364474303257673
  0.4897853347274003  0.6170788549790330  0.3376070311049240
  0.5524219628778798  0.8974372016816489  0.3662781219972562
  0.3092851920099102  0.9524437759058119  0.5311624059915659
  0.3560818169066629  0.7088440987498539  0.8859549515944666
  0.5927986470003425  0.4770659978702044  0.8453196666551687
  0.1843348888574559  0.1135784898992422  0.7870748398086066
  -0.0031451085649468  0.4074338785426245  0.8889732389162005
  -0.0384508805710743  0.7552909984177502  0.8403898478827243
  0.2693807680109855  0.0818110368272689  0.3869087523450540
  0.4887719592311772  0.1692778984644120  0.8387169753034761
  0.5271444956584237  0.1811225677605521  0.7394315728079855
  0.2268312500143164  0.3403731627041332  0.9133298023310686
  0.0778975323679237  0.5347694564759845  0.6077366861905661
  0.4980989460808835  0.3577684354180422  0.4910349942652499
  0.7895357649227277  0.8236280848397565  0.3888028298766268
  0.3972233880775917  0.9476191998466434  0.6985821984654480
  0.7952178324786366  0.9372305242090540  0.5809698232268483
  0.6811471445859485  0.1003077399028233  0.4454438307806214
  0.5087400734422894  0.4180203704880963  0.6125951118282987
  0.5474617981843599  0.5185042092624490  0.7543286473125542
  0.1118624351608811  0.1875914130401147  0.3420567372590205
  0.3921481337709690  0.8824561976975630  0.8685526201738892
  0.2745309086789311  0.4262827708991818  0.7592859685479438
  0.5782972898215742  -0.0025624162932900  0.8812879209309306
  -0.2344851428442259  0.7108377958535289  0.8010386897593365
  -0.0763317108690071  0.3767273476032306  0.4306297515214652
  0.0887032406509460  0.6699726708208285  0.3893796141483763
  0.5959693147393725  0.3662345757425860  0.7057009556194037
  0.6282918879304502  0.2947927693658301  0.8788611570249716
  0.4869506626107873  0.8268328908284757  0.5517417454608727
  0.2566557761115534  1.0149905999485069  0.6250708626390121
  -0.1881422344033685  0.6935494491019025  0.6262643010380590
  0.3324540665304380  0.2239891325531991  0.6259512180016056
  0.7397078331974201  0.2443266506278937  0.6072591473843654
  0.9142502090635488  0.0015863436943244  0.3681216379050118
  0.9020992319639062  1.0218454532402090  0.7384783283410764
  0.6231168869756424  0.8400017626731500  0.6429702797265112
  0.1089331559013048  0.4471922056345354  0.5011605737531358
  0.6696508155590326  0.0270303913934706  0.6972653103234753
  0.4810389803824286  0.6683297179980748  0.8010010417843338
  0.9457610650319740  0.9197322982183936  0.4790634025753366
  0.6771957317819628  0.8851124764324300  0.4846692182635063
  0.5080465120127844  0.0899410011878946  0.3663929936177700
  -0.2541090197427894  0.6114779637758452  0.7155442196887939
  0.6745990384498771  0.7730687244768913  0.8889298503827798
  0.8008834592005716  0.5362454016091888  0.8908284747004762
  0.8863041792520256  0.1130804813408924  0.5739993754685422
  -0.0758718965892198  0.4832703629946285  0.6953721703917269
  0.3836170684511621  0.5712119227648149  0.6640262266754251
  0.2898772276531886  0.2545194652196517  0.7303261534695371
  0.1360503616743270  0.6203828428865410  0.8774871992842471
  0.2746670046617875  0.1683287104897498  0.8755155597669392
  0.8441113007661192  0.5468388136089319  0.5761171170215618
  -0.1767334378698491  0.3114831587630366  0.7035095310419918
  0.7943465351609263  0.5386963546343911  0.4684299057118202
  -0.0163792251633744  0.4147885718451390  0.7839716391591852
  0.7111316002376052  0.3856541284566305  0.5518881465666079
  0.2857888690398128  0.3199802539607575  0.5353130771044253
  0.1199442943999663  0.6705282755717442  0.5226784690409149
  0.4496657193381242  0.6347930730938466  0.5448060361486847
  0.2747889349829388  -0.0750658051273636  0.7792133848016607
  0.0161887076112703  -0.0922140338216165  0.8941818394235208
  0.4465981045768885  0.7517272958659088  0.7106068534585018
  0.8180099109992436  1.0174385026592041  0.8950556347482160
  0.0070298616416525  0.1012629495388679  0.4805053530201267
  0.3278921404186835  0.7899617110978886  0.3776799817395943
  0.5508467571290522  0.5545429883068264  0.4542519296588913
  0.2672172710109196  0.6004945068708484  0.4518232454837966
  0.1070675828751978  0.8523939081386978  0.5555247696594379
  0.5464349199538394  0.1509462680836739  0.6240898543046414
  0.2283788608275175  -0.0086824892214574  0.9170904605700858
  0.8490463127368688  0.2016891794969320  0.8795605898312776
  0.9862899824167393  0.8316033099312200  0.6465926107689540
  0.0315024608161175  0.8533803155921563  0.7520721899510581
  0.5193317766934503  0.1611576481000145  0.5165615765116723
  0.0663828665751943  0.4816578586950498  0.3714107726271799
  -0.0579894799926340  0.2065648705421611  0.7835912095353068
  0.1491596812039097  0.9107823279054694  0.3819628802147380
  0.2559486797271813  0.1106613671269000  0.4902099839302018
  0.0120230965871590  0.0294553066935678  0.6463278276681863
  0.3454617517513836  0.4724264065903295  0.8625715272852875
  0.2953929441654328  0.4028477951656163  0.3652741929870338
  0.8977057125339192  0.7201303896412472  0.4548183180901821
  0.9141013839824546  0.1807494311249611  0.4010092167958813
