combine
1.000
11.0985002518  0.0000000000000000  0.0000000000000000
0.0000000000000000  14.4173002243  0.0000000000000000
0.0000000000000000  0.0000000000000000  26.7964000702
Pt  H  C  O  K  
96  166  6  81  2  
Direct
  0.0000000000000000  0.0000000000000000  0.0018699899937576
  0.1249999521128992  0.1666699702868031  0.0018699899937576
  0.2499999943280624  0.0000000000000000  0.0018699899937576
  0.3750000365432257  0.1666699702868031  0.0018699899937576
  0.4999999886561249  0.0000000000000000  0.0018699899937576
  0.6250000308712881  0.1666699702868031  0.0018699899937576
  0.7499999829841874  0.0000000000000000  0.0018699899937576
  0.8750000251993506  0.1666699702868031  0.0018699899937576
  0.0000000000000000  0.3333300219343480  0.0018699899937576
  0.1249999521128992  0.4999999922211510  0.0018699899937576
  0.2499999943280624  0.3333300219343480  0.0018699899937576
  0.3750000365432257  0.4999999922211510  0.0018699899937576
  0.4999999886561249  0.3333300219343480  0.0018699899937576
  0.6250000308712881  0.4999999922211510  0.0018699899937576
  0.7499999829841874  0.3333300219343480  0.0018699899937576
  0.8750000251993506  0.4999999922211510  0.0018699899937576
  0.0000000000000000  0.6666699625079541  0.0018699899937576
  0.1249999521128992  0.8333300141554991  0.0018699899937576
  0.2499999943280624  0.6666699625079541  0.0018699899937576
  0.3750000365432257  0.8333300141554991  0.0018699899937576
  0.4999999886561249  0.6666699625079541  0.0018699899937576
  0.6250000308712881  0.8333300141554991  0.0018699899937576
  0.7499999829841874  0.6666699625079541  0.0018699899937576
  0.8750000251993506  0.8333300141554991  0.0018699899937576
  0.0000000000000000  0.2222199683821562  0.0864100026098289
  0.1249999521128992  0.0555599860957249  0.0864100026098289
  0.2499999943280624  0.2222199683821562  0.0864100026098289
  0.3750000365432257  0.0555599860957249  0.0864100026098289
  0.4999999886561249  0.2222199683821562  0.0864100026098289
  0.6250000308712881  0.0555599860957249  0.0864100026098289
  0.7499999829841874  0.2222199683821562  0.0864100026098289
  0.8750000251993506  0.0555599860957249  0.0864100026098289
  0.0000000000000000  0.5555599783168760  0.0864100026098289
  0.1249999521128992  0.3888900080300730  0.0864100026098289
  0.2499999943280624  0.5555599783168760  0.0864100026098289
  0.3750000365432257  0.3888900080300730  0.0864100026098289
  0.4999999886561249  0.5555599783168760  0.0864100026098289
  0.6250000308712881  0.3888900080300730  0.0864100026098289
  0.7499999829841874  0.5555599783168760  0.0864100026098289
  0.8750000251993506  0.3888900080300730  0.0864100026098289
  0.0000000000000000  0.8888900002512240  0.0864100026098289
  0.1249999521128992  0.7222199606033073  0.0864100026098289
  0.2499999943280624  0.8888900002512240  0.0864100026098289
  0.3750000365432257  0.7222199606033073  0.0864100026098289
  0.4999999886561249  0.8888900002512240  0.0864100026098289
  0.6250000308712881  0.7222199606033073  0.0864100026098289
  0.7499999829841874  0.8888900002512240  0.0864100026098289
  0.8750000251993506  0.7222199606033073  0.0864100026098289
  0.8760327433900937  0.2884471894807832  0.1677898530146270
  1.0092126694580572  0.4546735417946997  0.1726694084757134
  0.1268896085461275  0.6200238056244000  0.1724897240857436
  0.1215432121453727  0.9486955937108598  0.1733622336407118
  1.0057453978783897  0.1162956165797267  0.1707808485136505
  0.7455918993701814  0.7873615465790963  0.1747771243611323
  0.1285650017504467  0.2858107929218813  0.1695215713827076
  0.9936376755599434  0.7845226388735458  0.1740497847017400
  0.2531689842908545  0.7857269060130160  0.1695375942178226
  0.8772891189258548  0.9542934112803361  0.1728297889405797
  0.3829755251220221  0.9501012662490401  0.1714673018264765
  0.8830968635343702  0.6208110356274812  0.1720924694518334
  0.2536166430724268  0.1155859431359598  0.1689713153684156
  0.4991258262756333  0.1193579769809885  0.1685959095910110
  0.6269389542223518  0.9525059252462611  0.1716996706104806
  0.2571577968417053  0.4496800651950616  0.1703067934142072
  0.7458752470053260  0.1229739463919696  0.1704132917756485
  0.7557802188218715  0.4500712611271886  0.1705801563465717
  0.6333273832615366  0.2885521738035380  0.1747128788357823
  0.3770513691182110  0.2886830338446447  0.1737037368827901
  0.3862380483709744  0.6166353352977807  0.1718735873189859
  0.5057032222249789  0.7841089574278375  0.1746382433401649
  0.5045597132271805  0.4531114942511491  0.1710355324929209
  0.6345203355433418  0.6187300722270359  0.1708125701366212
  1.0175366915064432  0.0137169608333936  0.2594549596022698
  0.1276968656886903  0.5145849022617693  0.2608022849857324
  0.8806222315321278  0.8544829825584171  0.2614302423738859
  0.2582996975140907  0.3481072016271808  0.2578890429086067
  0.8740234170312117  0.1752277265504929  0.2562189684626826
  0.6301839301635073  0.8530366982766446  0.2598061982042963
  0.7570225563257845  0.3499863184228718  0.2612599480213593
  0.2578057188254737  0.6905751619931604  0.2562520916881038
  0.1255876248030847  0.8485717828002018  0.2619098345156040
  0.7650238471655624  0.6896919921415303  0.2599074502975958
  1.0164019783457208  0.6867877361470949  0.2611285639178686
  1.0100268983894423  0.3475265409091714  0.2582442362097616
  0.2552138037155620  0.0135983565403986  0.2567211856174028
  0.8782479922113038  0.5105931330258759  0.2578464076330844
  0.5021867333287724  0.0191374198225380  0.2599517841893458
  0.3806112564096126  0.8548516732784065  0.2584516202682710
  0.6234679838095925  0.1846496663233116  0.2587655584121247
  0.3757188868400220  0.1888018801683906  0.2592439493477137
  0.1241055582691553  0.1850196018325278  0.2583435380485544
  0.7479437551802282  0.0163545157159581  0.2565996071818120
  0.3814073940678125  0.5198317871516671  0.2637618071451360
  0.6328384277831494  0.5220906735307626  0.2593725917881523
  0.5045707075504884  0.3476834298387775  0.2620936278754246
  0.5146163958840916  0.6914194363725954  0.2724402747710399
  0.4319508300882805  0.8521116398959139  0.3730926565400164
  0.5362976363977343  0.8520788396217542  0.3366558699924899
  0.2653736184960961  0.8426811939188759  0.5533912687246023
  0.3614938676195742  0.9053300920792701  0.5782637103195163
  0.5175346233170952  0.8199833765530112  0.8661806430077965
  0.5527406576852639  0.7213898520175245  0.8888682458427791
  0.6382337768791039  0.4844947545884338  0.8537107574252326
  0.6627743103945063  0.4665170954242622  0.9122837240173187
  0.3390038596782293  0.1596427574991246  0.7592237545230887
  0.3078892592398508  0.1459893318204236  0.8157735880167744
  0.1021306315433173  0.3489836763834394  0.8325089717707554
  0.0347251481061592  0.3883575464817547  0.8754668286725914
  0.2182843974443383  0.7262719264007274  0.8621803357269985
  0.2044148482342966  0.7797854855343314  0.8108352532645938
  0.2540030048783208  0.0302538317933362  0.3839619455690268
  0.3938454988538724  0.0442911932237996  0.3722764578774087
  0.5892754547569888  0.0911467716670791  0.8621661016358891
  0.6119826268867662  0.1949318936747363  0.8492268348764862
  0.6192643755885237  0.1190359248333767  0.7770995638946878
  0.7076187560861015  0.1793563397425574  0.7401986491520524
  0.1786781100426951  0.3270602324804499  0.9091923670894111
  0.2999516264965698  0.3890823085549193  0.9104974850831856
  0.0847741735958790  0.4022248318326573  0.5716083450528091
  0.0356728305642728  0.5088161436172195  0.5760425724560692
  0.4249575862049538  0.2495895527329710  0.5096124844466123
  0.5072125404319396  0.2514497467972381  0.4611339754529861
  0.7525840674054450  0.7573496552285430  0.3944434264084008
  0.7783156846799216  0.7540769124288562  0.3344748743868529
  0.5365821868620629  0.8130782115532421  0.7178270448048447
  0.4816495507159204  0.9198532227724278  0.7277770586015305
  0.7057172231112675  0.9288576939272415  0.5488847862872732
  0.8349701685321901  -0.0607976124214031  0.5721669739567210
  0.6642066223681373  0.1417098352198043  0.4164631178540509
  0.6496439445348159  0.1314984135729232  0.4700590464055565
  0.6266909501913969  0.4621131434976051  0.6895845806634907
  0.7383772710255082  0.4314379356417964  0.6519946954527464
  0.6925769138900871  0.5913066641652678  0.8069694938854004
  -0.2398930466725170  0.4966968969842402  0.7937285857010737
  0.2356720862510942  0.1716710314895430  0.3847461922307033
  0.1552686042621404  0.2412247349152263  0.3497333358081205
  0.3765866778281276  0.9430131362101194  0.8960743540996394
  0.5229583254961565  0.9624783478887244  0.8913072491763905
  0.4357584362640019  0.4026820044445511  0.8049681454595109
  0.3125808479066668  0.3669354739927985  0.7779441103315491
  0.7551077603697677  1.0095839551684656  0.8692297461890430
  0.7162646413519451  0.0353389257748316  0.9244924441529694
  0.0434813096140385  0.6705095182943210  0.8113800090437940
  0.9056484236480359  0.6564594250141255  0.7989732790901790
  -0.0053753780913168  0.2984628390443970  0.4884127935175405
  0.0583079769354464  0.3047100672631861  0.4344056856930304
  0.1748089930155512  0.6761831349373408  0.3707407512156110
  0.0561369400698039  0.6410479828132131  0.3477184906924125
  0.7402077238379686  0.3305969821843963  0.7131438222013891
  0.7957113654313537  0.3152463730233982  0.7698076753877200
  0.6740691831481173  0.2585771942874974  0.9183002238970654
  0.6437079856570103  0.3420735410980492  0.8846622755182303
  0.5510147303378375  0.7367927690439529  0.5611142277473758
  0.4446389146947715  0.7962343475133787  0.5385574003483031
  0.3995815320255323  1.0229836360375917  0.6343528054913508
  0.4414182587782927  -0.0764817172664196  0.6534700099874015
  -0.0622625977404404  0.6088553250770775  0.7256881827766674
  -0.1825858188786675  0.5590230362142102  0.7050484046963622
  0.4406004413350281  0.1685137510769954  0.6663238862878619
  0.5357087512284124  0.1505055927490997  0.6211105788575345
  0.8226541085872591  0.3153422147398432  0.6036440531162465
  0.8840696750273690  0.2455600258662084  0.6410078413182835
  0.9067313380983960  -0.0577957463974818  0.3386380915095911
  0.8664342624707710  -0.1224686391439648  0.3801508330974837
  0.8654921636950104  0.9379057133601818  0.7060601045414526
  0.9717171817652488  0.9854719614670319  0.7332280650321457
  0.6942615498657423  0.8004643945853827  0.6080250856128674
  0.7030786464986076  0.6955155056907931  0.6127317989351639
  0.1982228267232051  0.3589310226111527  0.5171408988295707
  0.1794606499177193  0.2737692441714856  0.5589281498918975
  0.6382645743555417  -0.0542993482289095  0.6820570742681701
  0.6993742457627214  0.0311028188442800  0.6999148797101841
  0.7421102736889339  0.7580929932691794  0.8292367456892560
  0.7463310440035900  0.7333573579108393  0.7701138578032126
  0.9576962312882000  -0.0923617581227593  0.4755441572045797
  0.8679795485194171  0.8589958928389657  0.5119131385359115
  0.5888511169822307  0.7676373974405007  0.4733575493674635
  0.5884243181181922  0.8041895245170934  0.4181173602218269
  0.5938633834721088  -0.0215477572199259  0.3796034055974624
  0.6428124203486806  0.0512745522461985  0.3357115121558512
  -0.0514968391794473  0.4475151291033936  0.7501807177172050
  -0.0425760429408796  0.4956438769205800  0.8032720349416452
  0.7266565725753817  0.8408742757514860  0.9165344680501590
  0.7941499459956790  0.7459571672977470  0.8980634894596268
  1.0077886308004524  0.5761411429790281  0.8741159403814341
  1.0461112612955970  0.5224025411294146  0.9218711892114106
  0.9908475088799925  0.0425183740203179  0.5919498079684258
  0.8730934753755069  0.0852528751137717  0.5723922682344667
  0.0393950777835130  0.3352649066746257  0.6830005786170291
  0.0339060300997848  0.4368246032905080  0.6575935065134472
  0.5494522502723722  0.5320728391069106  0.7619400181372054
  0.4513889832265850  0.4769981907298389  0.7389545665658592
  0.4452932227846255  0.2835322937584503  0.7392250087476826
  0.5043452602519136  0.1809756381088806  0.7319938246859292
  0.3488559093623536  0.6655929210606361  0.9094630047004708
  0.3806149397270944  0.6885342949208074  0.8546536661269168
  0.3090921156886611  0.2159387792488838  0.8930220784400087
  0.4222881531168935  0.1655351004883353  0.8675399356592191
  0.7902700056413039  0.5573035811002620  0.5953022381890770
  0.8737979363767787  0.6103811215408929  0.6318710457577381
  0.0530498209705866  0.1510063609919522  0.6580657285569623
  0.0326148050175782  0.1781747873482133  0.7144969186734904
  0.7631311507900685  0.4239556726992393  0.4435164571384643
  0.8943613113934155  0.4311012644742071  0.4259164479295974
  0.1378372224077657  0.3832110314376316  0.7426938255759316
  0.1529914091432863  0.2836032132360289  0.7639298924322716
  0.8796989147625185  0.4345712913115257  0.5737784874132625
  0.7495891325632703  0.4257574008103192  0.5478081905944031
  0.2791780563231937  0.1177829363529432  0.5371928032716732
  0.3416551157878309  0.1640519976280675  0.5856964373715913
  0.9315180196192063  0.6346160011067004  0.5572107436030140
  0.0654357507071476  0.6720269864582374  0.5540419406153907
  0.4681271445984218  0.6213231984100496  0.5417911577885933
  0.4946797461674676  0.5434501706008842  0.5824590689761078
  0.4075469208433288  0.0330892377128924  0.7809518139293778
  0.4396429675990360  -0.0498444686397513  0.8188863756256131
  0.0172149325102744  -0.1400167180327974  0.9205365002119068
  1.0869974832539562  -0.1660634891312492  0.8665687491367077
  0.6256872720054011  0.7326052726916022  0.6823206455046607
  0.5672690499672616  0.6667847535627461  0.7217764718518641
  0.9483330154894576  0.9596029893364950  0.8599208072887985
  0.8930585996961611  0.0631393515247545  0.8664784589076597
  1.0229009528615163  0.0291328100730033  0.5079075686004422
  0.1248109579558139  0.0072159382603861  0.4767034778826789
  0.2144558431860178  0.8375908593376270  0.3825125357715074
  0.2835773205654125  0.7985476463613689  0.3384848333185937
  0.5936785784936462  0.4892657219699735  0.5150983335948148
  0.5922803223105657  0.3892783500853049  0.4961645353879345
  0.3341676536249569  0.3595456708297605  0.4697315938418907
  0.3077837594810154  0.4592653257396869  0.4940372080099785
  0.1227276940304696  0.8149440299090713  0.6012751614541686
  0.0647438442940487  0.8160634882576460  0.5457857973938975
  0.6979428300993823  0.0612949968268353  0.6354458050929118
  0.7270832173285079  0.1699646558771010  0.6150443227121513
  0.2457843434078031  0.0506067328521228  0.8926089850778034
  0.1511143171193778  -0.0352647415806093  0.9070022882711274
  0.9639354495905801  0.2208620663203678  0.8799177873494115
  0.8213461553349585  0.2336924294134677  0.8805311257402753
  1.0457304225242221  0.8941927043921245  0.6726448579764569
  0.1780601338977752  0.8767604423187860  0.6807003092771730
  0.1563589385708717  -0.1006254930278001  0.7725892827567968
  0.3061948435914887  0.9044920651108341  0.7628815286062948
  0.5263100206041480  0.0548338699687711  0.5222029488304905
  0.6550496669512541  0.0738932086400195  0.5471411188850254
  0.1179053193595027  0.5309605767866066  0.3830707315612707
  0.0880019214165082  0.4652914707147054  0.3365753585247425
  1.0012737591097236  0.0884269726832229  0.7954739339783602
  0.1370198728925887  0.1062406572569219  0.7708057004854920
  0.1560163332175598  0.9495662145625254  0.3397528394504243
  0.0525442202161883  0.9334083818978935  0.3799108497794576
  0.3441845204878441  0.0340235807792382  0.4627907796574199
  0.3348720125854149  -0.0191684869844221  0.5124033936099357
  0.1677480201343468  0.0980401831625607  0.6072525366381630
  0.1384977501848237  0.0001880337412570  0.6356145737740837
  0.3360725072826907  0.5404857887793857  0.8747389068006646
  0.4488653857436316  0.4710893004539456  0.8868172429671684
  0.5452147039523302  0.3330586526253143  0.3621707619521881
  0.7215920347977768  0.4277714350503122  0.3454360918313798
  0.7106059215902535  0.5911937727934660  0.3495184539626146
  0.3297510746198747  0.5807243835144944  0.3611745506988083
  0.5123085831058880  0.6617344866357054  0.3718875264734627
  0.2358877448036641  0.4355076607905525  0.3783221188309544
  0.5302199689589234  0.3907609950373724  0.3389229692312254
  0.6339954732225020  0.4556498134461894  0.3331666119669696
  0.4140094056000749  0.4401229239649885  0.3526457546477985
  0.6272653567918712  0.5523279380960959  0.3393800988705765
  0.4080913710990307  0.5441299337706544  0.3445822598673824
  0.5161707084946808  0.6059496273980217  0.3429340001539771
  0.5105411566559207  0.8796431452002831  0.3675248009732561
  0.3330377986341471  0.8790162528862308  0.5446391563966179
  0.5321116777054808  0.7500629580962370  0.8573939360328605
  0.6094888530279503  0.4450799820610350  0.8837193847368638
  0.2867200614320753  0.1244810007892540  0.7818897360993021
  0.0781845361637279  0.3308262881673867  0.8679454200329235
  0.1589218154600610  0.7557666250186613  0.8396691351358849
  0.3252221113311773  0.0690689536603826  0.3931764391597011
  0.5604879025516192  0.1399713479156587  0.8395989752601152
  0.6473562111993247  0.1231032959491674  0.7426028201388724
  0.2666176494900820  0.3250508177391815  0.9223640823076995
  0.0208822462082129  0.4457658145779534  0.5887477570334040
  0.4440302782081521  0.2867431649673315  0.4802908306744034
  0.8094101376123374  0.7657029316413497  0.3682539869702113
  0.5256563087029545  0.8816412108056209  0.7034783369786920
  0.7706929402747684  0.8888585545510620  0.5639900847019710
  0.6740150673409024  0.1811370258003208  0.4478697341157597
  0.7074924199084028  0.4379460333535894  0.6855541709175149
  0.6769197311575088  0.5213185792879557  0.8067574782980410
  0.1539940271590128  0.1978337752371029  0.3779179941846724
  0.4537810738151935  0.9254238284926743  0.8782976601164151
  0.4065605043229323  0.3758265319027910  0.7728407737810519
  0.6832879151279996  0.0128975056430184  0.8926624307532017
  -0.0149246760591041  0.6280931431002135  0.7944870255641433
  -0.0207011124104573  0.3090928995630571  0.4514893063473246
  0.0979173909667433  0.6499144866184501  0.3795367301673553
  0.7514095837631271  0.2829663277750101  0.7411024681029768
  0.6790099610780999  0.2753205178879268  0.8833537404647105
  0.4981255683355392  0.7409749651043758  0.5322792754897671
  0.3779831595101897  0.9565482439254388  0.6338384981193197
  -0.0971494269259606  0.5795164917921144  0.6963830704129624
  0.4506496731744301  0.1431524007678911  0.6311470205846114
  0.8304224128845912  0.2491181394035500  0.6116267393740876
  0.9022203153958576  -0.0613596042072400  0.3747476578567537
  0.9488046378871912  0.9276342263760651  0.7143575994705295
  0.6430144205963840  0.7454397053538371  0.6206542132909673
  0.1382298036305569  0.3330311008719471  0.5425564138881543
  0.7171326148782274  -0.0230446657786882  0.6811977582839455
  0.7830834237797534  0.7224688977929450  0.8013479731062894
  0.9391933695194044  0.8463316573816047  0.4917225860518978
  0.6375907810113656  0.7897639657880423  0.4470875681402895
  0.6122008631479769  0.0439671662196226  0.3721509471897346
  -0.0952069499686345  0.4515564064086825  0.7824476031396822
  0.7770112191961593  0.8077170024990169  0.8873100528433235
  1.0167243379635815  0.5146408423883847  0.8870461788460151
  0.9182832527166984  0.0279841383978386  0.5673404525635047
  0.0462503570170888  0.4019904513004198  0.6883254585757621
  0.5093113792454290  0.5290458910430529  0.7296840178671830
  0.4382580692297714  0.2204607293078911  0.7206789910625433
  0.3162038801531615  0.6570237315676012  0.8747324640210543
  0.3280874912814857  0.1586015448055928  0.8735519325908201
  0.8159360380454390  0.6235479660989361  0.6042210478677614
  0.0197004683010697  0.2004103353920610  0.6798928151979939
  0.8163132508133822  0.4597532265457021  0.4200044678395488
  0.1609193519917563  0.3491483455144879  0.7730270524038116
  0.7918099634835564  0.4316186451546363  0.5799990243049091
  0.2661524559519585  0.1617515892101238  0.5665012310396774
  0.0110847624641940  0.6261770686986109  0.5392150808559023
  0.4899539439140061  0.5545755269300569  0.5477983823179440
  0.4359898774084560  -0.0324379322497397  0.7836239869978653
  0.0499290949883186  -0.1192633507209554  0.8871600284150619
  0.6170040656970199  0.7218904023277578  0.7190925745219396
  0.9062177169540370  1.0144648450511216  0.8430488844888854
  0.0446058298840611  0.0273462063885919  0.4715799154436823
  0.2683641380299959  0.7856554093399938  0.3735297193980614
  0.6431682134567953  0.4384946762740349  0.5005641613709452
  0.2726931662869632  0.4133659113968653  0.4702815477372421
  0.1200193985925229  0.7809452000883655  0.5691705299832899
  0.6875067785543805  0.1083581180522896  0.6086011683762071
  0.2354614697040863  -0.0110253802533767  0.9079775411495565
  0.8901504349470756  0.1846747208130135  0.8846389130106413
  1.1263328015127629  0.8965384203842905  0.6549557411899399
  0.2276745181665591  0.8696585794036040  0.7568013959178300
  0.6111220192926499  0.0484973240081049  0.5172256252440910
  0.1140459555330205  0.4655389093228013  0.3743194214492535
  0.0433261046078737  0.1020843763327721  0.7652977005297764
  0.1411578880620303  0.9354688562611817  0.3753388895355798
  0.3206471040555984  0.0441048774463510  0.4971478608432558
  0.1057048343545094  0.0586048796345311  0.6191936233610711
  0.3667940840871514  0.4720170784492637  0.8751990294316038
  0.3199988495584349  0.3965267367023682  0.3694859531825949
  0.9167656093939198  0.6683898736920333  0.4523916118785400
  0.9133582028937608  0.1426630343615435  0.3911745070770533
