combine
1.000
11.0985002518  0.0000000000000000  0.0000000000000000
0.0000000000000000  14.4173002243  0.0000000000000000
0.0000000000000000  0.0000000000000000  26.7964000702
Pt  H  C  O  K  
96  166  6  81  2  
Direct
  0.0000000000000000  0.0000000000000000  0.0018699899937576
  0.1249999521128992  0.1666699702868031  0.0018699899937576
  0.2499999943280624  0.0000000000000000  0.0018699899937576
  0.3750000365432257  0.1666699702868031  0.0018699899937576
  0.4999999886561249  0.0000000000000000  0.0018699899937576
  0.6250000308712881  0.1666699702868031  0.0018699899937576
  0.7499999829841874  0.0000000000000000  0.0018699899937576
  0.8750000251993506  0.1666699702868031  0.0018699899937576
  0.0000000000000000  0.3333300219343480  0.0018699899937576
  0.1249999521128992  0.4999999922211510  0.0018699899937576
  0.2499999943280624  0.3333300219343480  0.0018699899937576
  0.3750000365432257  0.4999999922211510  0.0018699899937576
  0.4999999886561249  0.3333300219343480  0.0018699899937576
  0.6250000308712881  0.4999999922211510  0.0018699899937576
  0.7499999829841874  0.3333300219343480  0.0018699899937576
  0.8750000251993506  0.4999999922211510  0.0018699899937576
  0.0000000000000000  0.6666699625079541  0.0018699899937576
  0.1249999521128992  0.8333300141554991  0.0018699899937576
  0.2499999943280624  0.6666699625079541  0.0018699899937576
  0.3750000365432257  0.8333300141554991  0.0018699899937576
  0.4999999886561249  0.6666699625079541  0.0018699899937576
  0.6250000308712881  0.8333300141554991  0.0018699899937576
  0.7499999829841874  0.6666699625079541  0.0018699899937576
  0.8750000251993506  0.8333300141554991  0.0018699899937576
  0.0000000000000000  0.2222199683821562  0.0864100026098289
  0.1249999521128992  0.0555599860957249  0.0864100026098289
  0.2499999943280624  0.2222199683821562  0.0864100026098289
  0.3750000365432257  0.0555599860957249  0.0864100026098289
  0.4999999886561249  0.2222199683821562  0.0864100026098289
  0.6250000308712881  0.0555599860957249  0.0864100026098289
  0.7499999829841874  0.2222199683821562  0.0864100026098289
  0.8750000251993506  0.0555599860957249  0.0864100026098289
  0.0000000000000000  0.5555599783168760  0.0864100026098289
  0.1249999521128992  0.3888900080300730  0.0864100026098289
  0.2499999943280624  0.5555599783168760  0.0864100026098289
  0.3750000365432257  0.3888900080300730  0.0864100026098289
  0.4999999886561249  0.5555599783168760  0.0864100026098289
  0.6250000308712881  0.3888900080300730  0.0864100026098289
  0.7499999829841874  0.5555599783168760  0.0864100026098289
  0.8750000251993506  0.3888900080300730  0.0864100026098289
  0.0000000000000000  0.8888900002512240  0.0864100026098289
  0.1249999521128992  0.7222199606033073  0.0864100026098289
  0.2499999943280624  0.8888900002512240  0.0864100026098289
  0.3750000365432257  0.7222199606033073  0.0864100026098289
  0.4999999886561249  0.8888900002512240  0.0864100026098289
  0.6250000308712881  0.7222199606033073  0.0864100026098289
  0.7499999829841874  0.8888900002512240  0.0864100026098289
  0.8750000251993506  0.7222199606033073  0.0864100026098289
  0.8824287589407973  0.2822237077190058  0.1703077629884759
  1.0090350893927076  0.4498306345989186  0.1710457128417471
  0.1360908349175409  0.6154817002106812  0.1706165272992909
  0.1362284848040426  0.9513558920540512  0.1702623871396001
  0.9997052684663885  0.1119860143079174  0.1723105190437447
  0.7610034748731203  0.7851352137428069  0.1718810749068512
  0.1261329923448856  0.2816664479148118  0.1728922498605396
  1.0114076761839479  0.7838119146366509  0.1729261112298886
  0.2574740567435268  0.7791743173778169  0.1744388018858651
  0.8806293363929839  0.9476631105990140  0.1699432112735288
  0.3773831104901503  0.9530632297814373  0.1702744190468397
  0.8850857386885984  0.6168533499434564  0.1688335816396189
  0.2547178565627827  0.1203301715723431  0.1749883644114813
  0.5037233442773763  0.1166644560168799  0.1698788057192200
  0.6366883118963718  0.9524937601739333  0.1717426956734361
  0.2562269899790101  0.4486996234077584  0.1702277941085373
  0.7512399231101308  0.1172723718030288  0.1711337940054040
  0.7477387510491851  0.4542294671274323  0.1729197917877413
  0.6247813804099697  0.2852379555826075  0.1744002948999530
  0.3719975596820304  0.2892295660925283  0.1739256758329633
  0.3864855811851088  0.6168682564097612  0.1685697634930962
  0.5104242297044806  0.7881091943031711  0.1733027734633811
  0.5018048761044764  0.4477110256621155  0.1749209007486286
  0.6299119495236447  0.6284428363244347  0.1710458307717672
  1.0128385575859125  0.0234823076118912  0.2605524241804578
  0.1370548104959768  0.5176110242139546  0.2569616706893945
  0.9029208844028040  0.8557466811161604  0.2609045770470846
  0.2618838765290480  0.3431155707822670  0.2609896935513175
  0.8827736137872328  0.1820890928507707  0.2576116776289226
  0.6476882962573398  0.8560133451406440  0.2594359504779596
  0.7638327744530258  0.3475094897139979  0.2545906032238562
  0.2618330108456501  0.6883572354047894  0.2570105087421393
  0.1368626740584744  0.8532738487588298  0.2584062007045679
  0.7729189457745650  0.6895166963191031  0.2556750838975239
  1.0188978323774855  0.6842318230824636  0.2578040675128806
  1.0070662259423098  0.3547997509740670  0.2570777139411691
  0.2634610260630277  0.0119229066764021  0.2604941552788177
  0.8888568901460409  0.5185547253638458  0.2559426843543470
  0.5109021972297902  0.0177084989511201  0.2580772773911038
  0.3932927734620786  0.8518421915637322  0.2577535524998023
  0.6353791576079225  0.1856682159457471  0.2569719861944353
  0.3819754653528474  0.1804956630239242  0.2568524164950874
  0.1304897384459777  0.1854880241303875  0.2591266129035733
  0.7604069403729813  0.0204962418485218  0.2588924050628350
  0.3826624966748284  0.5214181012773487  0.2592890475958677
  0.6480678826522959  0.5159495107941517  0.2592740952851487
  0.5005729407898124  0.3418710808971386  0.2646210429768029
  0.5223929515845794  0.6896762668256617  0.2622338883130264
  0.4272276410617723  0.8427308569479354  0.3970941722516453
  0.4682552781270731  0.8696316266458787  0.3421762478981963
  0.2997829862877545  0.8057105733097819  0.5569226749788788
  0.3742286450844012  0.8705625313569686  0.5931715973884311
  0.5300354616873515  0.7670865867910412  0.8791265069742696
  0.6010779171553435  0.6700727696241792  0.8887602852401452
  0.6997579122044382  0.5192212654268601  0.8462223566932568
  0.7311700593045347  0.5054247097745929  0.9012246495810642
  0.3324610680800381  0.1787696255125421  0.7646885263214037
  0.2835838112351756  0.1816757131397791  0.8221605470990255
  0.1111457254866429  0.3883912471117230  0.8402537595988336
  0.0264665406078051  0.4302414363020015  0.8836887356796082
  0.1935595990955258  0.7090878950185946  0.8423805246512549
  0.1392451827758763  0.7751148590056208  0.7972637552705618
  0.2593548771630799  0.0560897774353771  0.4125338294226136
  0.3947066652351994  0.0958607306845552  0.4084101485844967
  0.5783753048488622  0.0890546235304147  0.8765086511385519
  0.6055628195719495  0.1984194857493781  0.8761912853775645
  0.6034956288182908  0.1381353756054348  0.8004309561474581
  0.6801491467800553  0.1952569621013548  0.7689747921854417
  0.1813300901149780  0.3579658059351106  0.9063337996139544
  0.3248256971310438  0.3793860473738987  0.9067216859372206
  0.1062976004896395  0.4121296764067692  0.5617755928133389
  -0.0216636684187132  0.4657631919173019  0.5762874283577131
  0.5011693717984910  0.2737339161425151  0.5091842451991785
  0.6231349974676405  0.2718833051206935  0.4771494691639215
  0.6923446198556223  0.8421728299543351  0.3772707538145270
  0.7950148219773182  0.8155658155735531  0.3472746046379858
  0.3790541476374433  0.8475726441906221  0.7090984305959491
  0.3449094512368158  0.9175928906164063  0.7530066426250890
  0.7980895542497679  0.8893388960499736  0.5745381178653634
  0.8685514813802528  -0.0314993506089695  0.5985460301339758
  0.6239940233885934  0.1565979178955205  0.4168234961651189
  0.6925335189277884  0.1373276787815612  0.4725998297951774
  0.5898600630601645  0.4584793174285816  0.6908403036229870
  0.6191687383334065  0.3808420522828219  0.6507466446170973
  0.6908309139657409  0.6346094605686986  0.7758207748405526
  -0.2268507978266404  0.5422987667983872  0.7662588028544368
  0.2403568089181561  0.2061194575105884  0.3918799395885278
  0.2095481140186318  0.2870252142440155  0.3554705723808409
  0.4813534283637614  0.8946297366937326  0.9215328423597346
  0.5774992150277692  0.9124051997216894  0.8830099423472071
  0.4111677450527514  0.4919072168551124  0.8051905616081124
  0.3176534995913726  0.4706833871269736  0.7715975938646180
  0.7371664320116675  1.0221326765299772  0.8777707043923996
  0.6765767196682418  0.0163249182259037  0.9297308830340228
  -0.0080992544182194  0.6959418197998412  0.8145716405717585
  0.8597559910180151  0.7082682828432109  0.8310882905187862
  0.0259066428685595  0.3502834079981295  0.4599007582442032
  0.0158988125779771  0.4177171879343591  0.4156721167440334
  0.1100602993726014  0.6959117910986791  0.3898849436428056
  0.0342895362856147  0.6746346557385535  0.3437353587373594
  0.6994133151225596  0.3412449962932551  0.7336000152147781
  0.7494610187309740  0.3420103944210822  0.7873465463356373
  0.6469555233406856  0.2930889168540681  0.9262714173275420
  0.6782604898782725  0.3500980817956899  0.8756358379980281
  0.5999946283571070  0.7185172629435871  0.5858677181737878
  0.4935173570421524  0.7690534445979007  0.5598835413486951
  0.3522077472373825  1.0172729694482097  0.6310859695816514
  0.2931687100310960  -0.0665203252328447  0.6554487201149222
  -0.0984570696227877  0.6831686020520682  0.6337129872637126
  -0.1328998544970777  0.6007033825516728  0.6683206439926218
  0.4194437068868833  0.1825549538230406  0.6551557936516869
  0.5100885960949400  0.1220609218315312  0.6251931727213894
  0.7632056863292164  0.2465973660108488  0.6097705275333295
  0.8555174941731489  0.2218353529747130  0.6537399855729670
  0.8633307347671596  0.0145411262676386  0.3464479432901194
  0.8608482184473953  -0.0562511288440188  0.3860157774515118
  0.8954790000106669  0.9770279729736236  0.7345646984495514
  0.9916368376272328  1.0481846863762407  0.7485899430202932
  0.7092000783280100  0.8182351244386856  0.6439000134980153
  0.7367772442113339  0.7008021249200671  0.6451617522693215
  0.1871694381376524  0.3810248275638387  0.4864844860297946
  0.2073827326558569  0.2899798258729114  0.5201436183698526
  0.6809390788520556  -0.0996645830873488  0.7498185404256817
  0.6503510615345859  0.0019096584500332  0.7359060366892342
  0.6101579843908834  0.7320052439646274  0.8086792984815391
  0.5875674977024377  0.7509124630180640  0.7531506185505824
  1.0191469716429060  -0.0566598088540299  0.4625532319911915
  0.9411132963848873  0.9413085974603069  0.5070819741421551
  0.6454822005647233  0.8029591820726666  0.5299983701912986
  0.6887808646902714  0.9090342596605201  0.5130292681175586
  0.5427850600195271  -0.0077609446678102  0.3896852032528287
  0.5316502456395430  0.0629684789992696  0.3415543076877076
  -0.0170151850714580  0.5086313149004319  0.7131126855637134
  -0.0760669065771368  0.5909450000312845  0.7485838240976181
  0.8561818229862969  0.7774866961851202  0.9198221976358198
  0.7837620928998247  0.8612222813722294  0.8988051292824364
  0.9557833901458522  0.5767847623429614  0.8631900573474069
  0.9769399203321644  0.5590122603617563  0.9193805448142096
  1.0141173791003508  0.0877211035023310  0.5832719003543130
  0.8948958252074812  0.1391407451735575  0.5811142965475130
  0.0133613187850268  0.3734924180134734  0.6837572815228999
  0.0760484611930439  0.4497514348401402  0.6498801577703875
  0.6099501687538449  0.5598455645666415  0.7393874327333151
  0.4711861760918430  0.5507932252749876  0.7292224159778398
  0.4669773590318602  0.2992128303348451  0.7109114163766035
  0.5109973537442777  0.2026347630658322  0.7316199522749428
  0.2726830968994365  0.6458317083947721  0.9150456267992639
  0.3882818091211100  0.6698929158193989  0.8826440946148879
  0.2759342596765106  0.2244330975397374  0.8937199667515360
  0.3992731300773101  0.1624727735538108  0.8860574732612875
  0.8057579974059680  0.5038642184794141  0.5286031609877467
  0.8221137501456734  0.5572475015786164  0.5828466887299847
  -0.0114931361270467  0.2212858333505988  0.7134660009708277
  -0.1176055398916002  0.2804492806486115  0.7241947193041427
  0.7011582899804786  0.4988592579752012  0.4592091364498036
  0.8302887927767970  0.4932130632207355  0.4495751586907131
  0.1588885445593426  0.3952939028275460  0.7464866175567106
  0.2231685192148639  0.3220501810785754  0.7782820272560717
  0.7452858406574784  0.3991607154022078  0.5789529616984932
  0.6433670646213608  0.3290084522000239  0.5568687341996617
  0.3745182840831009  0.1553686126841239  0.5176019883515823
  0.3904788055662871  0.2013686232673953  0.5674049036351216
  1.0550497711617306  0.5833690493955402  0.5282614266325345
  0.0974894602200436  0.6693516076563873  0.5113763008762887
  0.4795372050865011  0.6208823487571244  0.5477617763821678
  0.4081065192178022  0.5236939574216701  0.5508959684258745
  0.3488081464585402  0.0265712182267190  0.8185254633659563
  0.4011420092348013  -0.0650808579000481  0.8497242899624335
  0.0267416625730008  -0.1052875690860285  0.9048806947566603
  1.1037254380305388  -0.1418518122313220  0.8600541063883284
  0.5601836555701901  0.7564034550324059  0.6786852379557066
  0.4803720975935762  0.6842282184270017  0.7005725091325630
  0.9582137287040394  0.9935554491718639  0.8520639457123013
  0.9021533489424504  0.0911128466955247  0.8682713264597988
  1.0028602622318139  0.1221306732402107  0.5023900068192825
  0.0912524241944983  0.1405132429569253  0.4607029119082658
  0.2009360450695412  0.8406308400564948  0.4060330869555790
  0.2489870029648216  0.7739117116319701  0.3644509245650738
  0.5082686717230210  0.5125932750463214  0.4677463160597770
  0.5480435268822489  0.4011953288141252  0.4656593693298619
  0.2977615314162856  0.5139083878694588  0.4711033044897280
  0.1653388648617087  0.5323618259515472  0.4629904559865530
  0.1065223125447296  0.7874238717222244  0.5750750575162982
  0.1179960347604269  0.8255458476157164  0.5183645152188656
  0.6811172400409675  0.0108483848062194  0.6469070614592678
  0.7224969477654879  0.1099469388470034  0.6337143750023604
  0.2676306698121906  0.0756807732324917  0.9111762511955124
  0.1797958570912649  -0.0226565160687607  0.9090078078543257
  0.9849603336475188  0.2581118048390144  0.8682653060018426
  0.8428766448586440  0.2485620823141313  0.8687030394723563
  0.9504806167832572  0.8210952607373317  0.6279976685791585
  0.0308824835539749  0.7719864893040604  0.6685002777004105
  0.0568761451348008  -0.1342975404463430  0.7470475205534051
  0.1987120099981363  0.8457900102577667  0.7322060776111393
  0.5672822062853845  0.0412550536956636  0.5124228727526053
  0.6414892296952752  0.0755788546501538  0.5580023175922227
  0.0776399130828733  0.5338964937156760  0.3773597265792923
  0.0447462556140823  0.4537078442103119  0.3412932611522896
  0.9709189979026531  0.1648155909242273  0.7974907047781101
  0.1038134969283922  0.1661453289612898  0.7789032284008670
  0.1809040633192194  0.9668965563264343  0.3516057713691867
  0.0499124436574354  0.9699129804088504  0.3820897134494671
  0.3643624667976330  0.0274450790331108  0.4746064142266360
  0.3892230115325175  -0.0518036580552835  0.5165436150168917
  0.1620298818940285  0.0368434370884990  0.6394389795312574
  0.0522851408149391  0.0330574314736614  0.6707405087927489
  0.3466434631089945  0.5133294407663159  0.8782768795414668
  0.4591520693504085  0.4561561448457184  0.8835493994557042
  0.5279658464799928  0.3549669839831942  0.3646181037939354
  0.7153045775903326  0.4316562594507641  0.3480128001138027
  0.7169313686423103  0.5810379032810026  0.3547239023412989
  0.3310926338812339  0.5981150584605156  0.3538107074928904
  0.5233589373174951  0.6838929585499927  0.3608497900676339
  0.2466803275655173  0.4473329770319833  0.3691760472370856
  0.5215459928616226  0.4063969969581790  0.3363766417610709
  0.6299413934117905  0.4621455262456048  0.3363030636276338
  0.4105027911010855  0.4646808260334522  0.3437269927927022
  0.6311831558289932  0.5632123301638639  0.3384642366825324
  0.4136964127883266  0.5646874673649436  0.3396555219789293
  0.5236207862460950  0.6225273910834280  0.3372028692073696
  0.5006232327290238  0.8598154578765367  0.3780514813803640
  0.3812730334365409  0.8366071657417833  0.5611804958690395
  0.5377519041396648  0.6995902212260210  0.8697376018436962
  0.6740123784100268  0.4842983700534688  0.8766471982601903
  0.2580735169542810  0.1849765853113795  0.7860804204824959
  0.0681179713878357  0.3688300872265550  0.8707621619572963
  0.1255473393059584  0.7493181325579646  0.8320970593992770
  0.3173156095688543  0.0996184384354619  0.4281413300907763
  0.5407727374810491  0.1529231004071046  0.8630277481943639
  0.6271519601462482  0.1464047370909544  0.7654042163525183
  0.2639964898162530  0.3333957595679726  0.9218962072585454
  0.0678052869600963  0.4612775043895498  0.5845816627070191
  0.5732756036265443  0.3113784652020705  0.4984430712823102
  0.7770531901192058  0.8265655244325465  0.3819077101248704
  0.3254296536970593  0.8951220442748730  0.7199622317198822
  0.8377338579230179  0.9069063511809358  0.6057650957320868
  0.6895631661006437  0.1773589579198869  0.4407378585616054
  0.6021339970520935  0.3885706650096482  0.6872488575874046
  0.6949432018302745  0.5656369517335168  0.7805858051455745
  0.1785470483256164  0.2523308916997067  0.3837648454665443
  0.4993266858376844  0.8762039462914314  0.8863323595064810
  0.3836567730049308  0.5154811150962791  0.7733912500226872
  0.6584961218264338  0.0097705439651299  0.8922814982483408
  -0.0901026282571661  0.6626933368007799  0.8150969985774279
  -0.0343310415511505  0.3852735124110028  0.4409251732115901
  0.0342517093729260  0.6582152533041775  0.3808192110382921
  0.7450890449327906  0.3032930336658995  0.7565241277332778
  0.6879213424229765  0.2928981506178649  0.8920571966599090
  0.5558729080174079  0.7173874454988102  0.5537658557390409
  0.2877466558044233  0.9695301436145735  0.6245895564760122
  -0.1668144177227670  0.6335292253195394  0.6361100724442489
  0.4256447922262144  0.1413131763924906  0.6244861528511692
  0.8157223167365969  0.1946666044083345  0.6239249754407483
  0.8966907729795254  0.0048668104366542  0.3801636041151989
  0.9841368514749146  0.9887522920743039  0.7318787350062737
  0.6738406432425036  0.7563764015623433  0.6487768628157463
  0.1470150628987347  0.3389608740451455  0.5162748378124489
  0.7020374293126976  -0.0493221902462342  0.7272688066660347
  0.6558148261536088  0.7517892988474721  0.7793025426136706
  0.9855716131398898  0.8977045624940084  0.4864125984182142
  0.7137119897091787  0.8468651350494302  0.5202530331790179
  0.5372370875905483  0.0611116987433601  0.3799254040889536
  -0.0963685934436535  0.5476403025298967  0.7220875723309643
  0.8317373448275476  0.8043954449566910  0.8861238832751452
  0.9712632377921265  0.5292397902305921  0.8888346589505981
  0.9488193670214248  0.1025964983448777  0.5597375802311662
  0.0598072749146757  0.4341826321372820  0.6854626044722620
  0.5447513370844360  0.5721888765412411  0.7120238210101330
  0.4425676097455941  0.2345957956260994  0.7149617106816472
  0.3098484273082097  0.6381148477503306  0.8805932531751411
  0.3064080496775648  0.1640607898913919  0.8829590968009238
  0.8308281109697239  0.5001294161681432  0.5644871199106224
  -0.0651401764200300  0.2613033675438296  0.6946108275193056
  0.7754551766221008  0.5342921978635570  0.4650943961185224
  0.1909804511700791  0.3862744286141404  0.7796654556905959
  0.6899736723669531  0.3413116716613924  0.5887505811030478
  0.3766372385423925  0.2161413779361939  0.5325069306704637
  0.0513715018303965  0.6163449140791852  0.4961616055242292
  0.4572552112684721  0.5635775131258670  0.5310714893388209
  0.3676304077785884  -0.0402941581198990  0.8162347833589705
  0.0870296862175902  -0.0864021112635519  0.8790047730998889
  0.4912391966847745  0.7558766876361634  0.7042187944897017
  0.8841950571932858  1.0272211433829010  0.8526895320468867
  0.0121758051298943  0.1194779965042751  0.4668304310403078
  0.2391811660110990  0.7788636897477943  0.4034990444079938
  0.5461700639522798  0.4668911153389555  0.4472975999313231
  0.2263336451420632  0.4816999700814089  0.4590670996206016
  0.1489075940176662  0.7771908969832133  0.5441471752138670
  0.6505263703290949  0.0677345823217338  0.6296098323581297
  0.2688555437944023  0.0038729365436871  0.9232394227354642
  0.9196799323714548  0.2122346052309224  0.8648611712986350
  1.0020669052916658  0.7630362150992888  0.6334969870478314
  0.1166428859872344  0.8116117465097824  0.7419309716647179
  0.6517447092391477  0.0610694445216596  0.5221191525446416
  0.1000010038401358  0.4704303518191667  0.3682524109712006
  0.0209707142514371  0.1555223717836441  0.7677387717605626
  0.1390184077303388  0.9578982574506614  0.3844569151009510
  0.4212785900817273  0.0018053578960733  0.4979152749453787
  0.0871877011619711  0.0696561505535798  0.6438894016434656
  0.3764501347668474  0.4514486521914691  0.8721193493819029
  0.3221178951651767  0.4138831070010348  0.3615583455172562
  0.8543138573035789  0.7223018683309421  0.4552621925124492
  0.8935027063311275  0.2187528918336808  0.3925893805041060
