combine
1.000
11.0985002518  0.0000000000000000  0.0000000000000000
0.0000000000000000  14.4173002243  0.0000000000000000
0.0000000000000000  0.0000000000000000  26.7964000702
Pt  H  C  O  K  
96  166  6  81  2  
Direct
  0.0000000000000000  0.0000000000000000  0.0018699899937576
  0.1249999521128992  0.1666699702868031  0.0018699899937576
  0.2499999943280624  0.0000000000000000  0.0018699899937576
  0.3750000365432257  0.1666699702868031  0.0018699899937576
  0.4999999886561249  0.0000000000000000  0.0018699899937576
  0.6250000308712881  0.1666699702868031  0.0018699899937576
  0.7499999829841874  0.0000000000000000  0.0018699899937576
  0.8750000251993506  0.1666699702868031  0.0018699899937576
  0.0000000000000000  0.3333300219343480  0.0018699899937576
  0.1249999521128992  0.4999999922211510  0.0018699899937576
  0.2499999943280624  0.3333300219343480  0.0018699899937576
  0.3750000365432257  0.4999999922211510  0.0018699899937576
  0.4999999886561249  0.3333300219343480  0.0018699899937576
  0.6250000308712881  0.4999999922211510  0.0018699899937576
  0.7499999829841874  0.3333300219343480  0.0018699899937576
  0.8750000251993506  0.4999999922211510  0.0018699899937576
  0.0000000000000000  0.6666699625079541  0.0018699899937576
  0.1249999521128992  0.8333300141554991  0.0018699899937576
  0.2499999943280624  0.6666699625079541  0.0018699899937576
  0.3750000365432257  0.8333300141554991  0.0018699899937576
  0.4999999886561249  0.6666699625079541  0.0018699899937576
  0.6250000308712881  0.8333300141554991  0.0018699899937576
  0.7499999829841874  0.6666699625079541  0.0018699899937576
  0.8750000251993506  0.8333300141554991  0.0018699899937576
  0.0000000000000000  0.2222199683821562  0.0864100026098289
  0.1249999521128992  0.0555599860957249  0.0864100026098289
  0.2499999943280624  0.2222199683821562  0.0864100026098289
  0.3750000365432257  0.0555599860957249  0.0864100026098289
  0.4999999886561249  0.2222199683821562  0.0864100026098289
  0.6250000308712881  0.0555599860957249  0.0864100026098289
  0.7499999829841874  0.2222199683821562  0.0864100026098289
  0.8750000251993506  0.0555599860957249  0.0864100026098289
  0.0000000000000000  0.5555599783168760  0.0864100026098289
  0.1249999521128992  0.3888900080300730  0.0864100026098289
  0.2499999943280624  0.5555599783168760  0.0864100026098289
  0.3750000365432257  0.3888900080300730  0.0864100026098289
  0.4999999886561249  0.5555599783168760  0.0864100026098289
  0.6250000308712881  0.3888900080300730  0.0864100026098289
  0.7499999829841874  0.5555599783168760  0.0864100026098289
  0.8750000251993506  0.3888900080300730  0.0864100026098289
  0.0000000000000000  0.8888900002512240  0.0864100026098289
  0.1249999521128992  0.7222199606033073  0.0864100026098289
  0.2499999943280624  0.8888900002512240  0.0864100026098289
  0.3750000365432257  0.7222199606033073  0.0864100026098289
  0.4999999886561249  0.8888900002512240  0.0864100026098289
  0.6250000308712881  0.7222199606033073  0.0864100026098289
  0.7499999829841874  0.8888900002512240  0.0864100026098289
  0.8750000251993506  0.7222199606033073  0.0864100026098289
  0.8763775015928409  0.2815199955993886  0.1701839425651613
  1.0012148634855247  0.4530863290194930  0.1710804814859515
  0.1191441102761196  0.6216390936004905  0.1723894293673129
  0.1305673364259264  0.9490965536069613  0.1688855572630739
  1.0063051708710509  0.1124501890144079  0.1739151531620351
  0.7482165731404304  0.7845643852747886  0.1685948416714425
  0.1245770811669587  0.2833119638804163  0.1722142740894508
  0.9946694815643757  0.7816327023284376  0.1711251546098362
  0.2441909108719852  0.7837884609390280  0.1733379310031078
  0.8802988565338331  0.9499738377033750  0.1688843636325894
  0.3730447705786661  0.9454315309274072  0.1712961529673766
  0.8671068969646784  0.6176332371501505  0.1698424207982066
  0.2558859471611405  0.1126890080544801  0.1697614109426173
  0.5096569645148782  0.1188624728096903  0.1714020159188391
  0.6271094532679047  0.9529877498106336  0.1710177282655340
  0.2370763899539726  0.4513092218009850  0.1723810351800559
  0.7565278332663234  0.1199896852036313  0.1756979932515562
  0.7494462641879019  0.4502248636925473  0.1705847449181588
  0.6237566760227119  0.2864438160370286  0.1712600297792818
  0.3780082229145856  0.2821766116545946  0.1725787718904394
  0.3703118032216505  0.6186931635761983  0.1748732012704655
  0.4886145138141970  0.7809343858792158  0.1745202867194353
  0.5011587207377785  0.4478641149274885  0.1760067854877642
  0.6156654248750232  0.6136501199016653  0.1721845567730234
  1.0052513386563691  0.0114045652751872  0.2590251150459180
  0.1257638167980061  0.5184201643871152  0.2631539182026912
  0.8725743064815776  0.8468118915996818  0.2573201236112361
  0.2580617961454286  0.3464429385039396  0.2565843960714042
  0.8916542296870265  0.1772987140679530  0.2625059493540954
  0.6233194235750928  0.8464680595768427  0.2586945205975297
  0.7757679098762571  0.3513926432329653  0.2630797997354793
  0.2416276972706353  0.6809347281159677  0.2549340553135357
  0.1138748845453263  0.8486328776228312  0.2543604177891022
  0.7558089300885084  0.6805220070373034  0.2538765244688789
  0.9945394473554955  0.6796249027737603  0.2602739695566855
  1.0169199803883000  0.3444442729943297  0.2674001795438382
  0.2709590426339156  0.0158443907074212  0.2578319801727170
  0.8893947447538317  0.5129320559362253  0.2598161742234369
  0.5091327292967859  0.0085328949793700  0.2549184291734982
  0.3597335900634394  0.8464571828872017  0.2606187280905108
  0.6417655529489060  0.1946198603307669  0.2611915794645681
  0.3914776053363913  0.1878414668396412  0.2633950154352701
  0.1381903242063050  0.1790249724043128  0.2662413352394298
  0.7620595213058893  0.0146203820147079  0.2593703993705199
  0.3718596227477359  0.5161318595736806  0.2637532632213477
  0.6330642471590234  0.5171298796243241  0.2648247668421617
  0.5134002502253292  0.3546577613110821  0.2655444743718849
  0.5002383865603436  0.6777801387065481  0.2707284706003367
  0.5071489546875607  0.8707359834985690  0.4116190111322546
  0.5304948426383203  0.8458932187279277  0.3532891926079286
  0.3024079230665122  0.7668652339475580  0.5383218085156890
  0.3614693115990473  0.8480110517705203  0.5723569548827656
  0.4461376046729333  0.7566110285346178  0.8847545614556519
  0.4745877530295809  0.6818511757722169  0.9244180427634254
  0.7558116112705893  0.5015705557141575  0.8810415687574032
  0.6494880615361450  0.4900624356071522  0.9242358509769463
  0.2697699572709758  0.1732142368368590  0.7472795831283670
  0.2563205279144470  0.1640401605575102  0.8052369032285071
  0.0835004544825504  0.3665816595809017  0.8329228199582338
  0.0236657413020648  0.4254323311490729  0.8723916883185092
  0.2145333256278334  0.7208412261044240  0.8413547081599356
  0.1680956196489186  0.7924931345358555  0.8013762092088261
  0.2259321899004617  0.0050166437456921  0.4102122740294628
  0.3566518110010428  0.0562224547445987  0.4000648487601113
  0.5882937919960015  0.0626602378909580  0.8514262469484660
  0.5839985677568285  0.1709952149393973  0.8551635816702063
  0.5983001276702282  0.1028956384635478  0.7659654288161555
  0.6704229582995449  0.1341775183081425  0.7192089485047071
  0.1885883859993192  0.3503299787353378  0.9024214712442721
  0.3355163343440093  0.3474209044879063  0.9017354795904736
  0.0792950979892323  0.3760598424774249  0.5767784908797506
  -0.0404198646413730  0.4188057652654704  0.6017405395149278
  0.4637370862486824  0.2206291922144141  0.5016403534163114
  0.5801045785673439  0.2052999376825913  0.4789614892850123
  0.7003044572476764  0.7787490263729404  0.3953122140790958
  0.7855140578193053  0.7593301497563516  0.3507395865667806
  0.4365820365426538  0.8071998110287697  0.7171038761012415
  0.4054853100688199  0.8922914308267866  0.7464235258318680
  0.8404770062682244  0.8462382921204907  0.5847381248918281
  0.8637098197520265  -0.0571651567199028  0.6111718866935757
  0.6296616485697344  0.1129906776064999  0.4035551046062318
  0.6848487540798381  0.0805012243792926  0.4541655881318974
  0.4598743355952283  0.4087705321393582  0.6873476750775549
  0.5293750989686309  0.3398689254414766  0.6512444205483812
  0.6328023594504091  0.5141681670126917  0.8110295582341556
  -0.2840592621321690  0.5068929373671848  0.7601336787045504
  0.1422799661912785  0.1956829302441039  0.3511492657352974
  0.2262515792881788  0.2580675459909587  0.3814398481334404
  0.4077332086617811  0.9049671238453715  0.9093351518698285
  0.5283033084987364  0.9065316955716355  0.8780689023995597
  0.2616122517030260  0.5553459884330558  0.7918825431218315
  0.2125618684666326  0.4867978727508783  0.7571746347959554
  0.7401992342765088  0.9828811262816036  0.8728989078093512
  0.6503161273280532  -0.0201826899816902  0.9166475219526259
  0.0453126057116084  0.6604527012728083  0.8073848265484015
  0.9026056223204851  0.6614477537220748  0.8124356580386550
  0.0269833186651890  0.3331530049713733  0.4822532005547695
  0.0078384914291362  0.3571413193103565  0.4278074897922077
  0.1453508391494940  0.6643885702994072  0.3874940067097790
  0.0654255112876385  0.6279346635815483  0.3442948057735555
  0.6036519982340339  0.3028396090025924  0.7234047863637273
  0.6799784023049456  0.3520333804692219  0.7635908682470750
  0.6482538898112060  0.2427800080628442  0.9259019820200356
  0.6726531206943230  0.3301775033980833  0.8904330798462330
  0.6013541794998439  0.7148098672891697  0.5883613362913315
  0.5036165399729112  0.7491213515826182  0.5463864156619423
  0.3557756027044828  0.9753145622229504  0.6145334083966411
  0.3358486482888057  -0.1150544622220030  0.6523212541761970
  -0.0507967887020200  0.6583605169504509  0.6464138139422366
  -0.1201461271836018  0.5799798424538937  0.6807790317546130
  0.3970689883604117  0.1134325814165670  0.6249237039203159
  0.4927479857752000  0.0618204110085579  0.5934491223724034
  0.7190572800415711  0.2332149709786078  0.6053484644580817
  0.7888569335555097  0.1907653420898042  0.6537053185095716
  0.8504558749069883  -0.0448128952680785  0.3628490530716065
  0.8506925604897611  -0.1315244130592465  0.3975403975568608
  0.8886746310430894  0.9378246892029661  0.7407538854659237
  0.9653898491250922  1.0173394379121448  0.7630697075589448
  0.7446037474711696  0.7879372231461981  0.6373282346494140
  0.7775215182970744  0.6747099989014966  0.6418200465228251
  0.2157318763597525  0.3789178691786064  0.4987021406379629
  0.2089362593854890  0.2667862246717381  0.5066159743075771
  0.7124431975948824  -0.1307954254446107  0.7839810746990091
  0.6944308660667935  -0.0500555869665285  0.7489490733465606
  0.5660464048807961  0.6829870478734579  0.8450441347075689
  0.6140944184052822  0.6935696658758799  0.7880523520241050
  1.0139698689626875  -0.0682113098707943  0.5019940915443871
  0.9250278092875611  0.8436762412839727  0.5122103373267616
  0.7180298527638944  0.7645548195092252  0.5293293762871534
  0.7229039008309949  0.8655757805103141  0.5023004649034388
  0.5386387965194170  -0.0063820222280533  0.3713991338734972
  0.5008584443919307  0.0750900423628074  0.3333687817989548
  -0.0969290688555445  0.4471256756195481  0.7262718486556297
  -0.0887394172325463  0.5428036290462949  0.7561546039288093
  0.8606875269521899  0.7837832712919487  0.8837235648020856
  0.7536322385669597  0.7414385551937833  0.8526797515987925
  0.9464408432928949  0.5569891742744708  0.8612677865548730
  0.9103083209879140  0.5351817766751561  0.9133620932506599
  0.9863958916272932  0.0347360280433028  0.6204663747721060
  0.8699654269264050  0.0937979975003024  0.6087610739787797
  -0.0481807258790011  0.3131785580000450  0.7048711722439597
  0.0285784689646296  0.3848617691853193  0.6721261291000561
  0.4991744502957943  0.5266044617842883  0.7317470371218282
  0.3665996045132423  0.5439200616411346  0.7173401040006391
  0.3989232222148157  0.2152796092689188  0.6841384105989418
  0.4721860291033524  0.1226207946769614  0.6987852418065589
  0.2036548315195489  0.5514316083048761  0.8839763598373236
  0.3109050977982697  0.6151484225980044  0.8856055052107930
  0.3116697512115652  0.2041945669230132  0.8877486494894854
  0.4030231063223662  0.1262176817427240  0.8625916786600462
  0.8216385936848584  0.4569986754382025  0.5410157551245949
  0.8144161435986859  0.5227556914641367  0.5968793973033343
  -0.0962388469403125  0.1789067625540991  0.7327949482750591
  -0.2067135521962001  0.2490394836231780  0.7382629301053105
  0.7268869956002931  0.4531687664718252  0.4794042575922818
  0.8553116159690530  0.4094110810185745  0.4701664442049796
  0.1093067388815212  0.3707727275312074  0.7506907019637531
  0.2051768743376549  0.3088100214141283  0.7756762898280189
  0.7018061930067306  0.3810150257564405  0.5823823869705168
  0.6092428714504342  0.3124235708158527  0.5569121548530686
  0.3223917180719705  0.1061514074958723  0.4837478827842881
  0.3552990148340504  0.1246973745729352  0.5445690457065595
  1.0546087163445081  0.5434964632624516  0.5539261099854602
  0.0905254124436366  0.6494426572402608  0.5399820552198527
  0.5074128319082263  0.5866605298850717  0.5630225481585518
  0.4160629933896777  0.5055573502114464  0.5798191910330004
  0.3764224787058449  0.0305676534749000  0.7922146529976614
  0.3947221070963620  -0.0576414014185065  0.8291417197084030
  0.0440299690510658  -0.1592956809784064  0.9219108344397702
  1.0920113384449741  -0.1607630328453213  0.8683248083116986
  0.6093574512829476  0.7219866908684972  0.6909339924988593
  0.5140198348308155  0.6571582430551771  0.7067649184847629
  0.9409336857659050  0.9598062623802970  0.8840966469949849
  0.9136412430008680  0.0507856601866353  0.9072724150038616
  0.9904311655817842  0.0520631981939909  0.5464301705169575
  0.1284032654383978  0.0724408802585443  0.5205220055887864
  0.1984594685793491  0.8196354307086468  0.3901931127244123
  0.3041137577081728  0.7721737014490535  0.3564399529368839
  0.5495092357015429  0.4647536909723559  0.5084272834786913
  0.5483347485452368  0.3778860874324700  0.4729237747533531
  0.3378959041688346  0.4874350527053136  0.4844958821553786
  0.2050723967259333  0.5266816794105207  0.4899250977372803
  0.1161709426542467  0.7562011433058953  0.5949333151929245
  0.0841616984554745  0.8045198854602589  0.5443003949444744
  0.6738904682898030  -0.0404225651844117  0.6088019042543813
  0.6754581580952052  0.0681283847474079  0.6145460435192364
  0.2533209761691920  0.0533553176622809  0.9061837446666680
  0.1716327079409726  -0.0570809318108624  0.9134363718774450
  0.9772592858608020  0.2575564209616291  0.8846978262786871
  0.8362307344989954  0.2448735291750097  0.8868916330753462
  0.9678577240251768  0.7959452130474838  0.6472435128772338
  0.0750281406683709  0.7766515542783362  0.6874795760900321
  0.0963075389511881  -0.1141239876053068  0.7447446252339466
  0.2303676945437144  0.8367378016771317  0.7326003256284970
  0.5966378335600840  -0.0314902567010977  0.4869055351099114
  0.6685609899046125  0.0134358853173847  0.5312025586313677
  0.0844213493303333  0.5091074822613937  0.3754249120458409
  0.0576737279432135  0.4118176950905711  0.3499209652503899
  0.9664233100558283  0.1232902871582050  0.8245048451291874
  0.0682752417451272  0.1563493707511695  0.7867693368239314
  0.1188525710026510  0.9476933752181321  0.3495071359423131
  0.0322501216271946  0.9364649081624800  0.3929885137634983
  0.3947499134299204  -0.0323002277302310  0.4538630314422391
  0.4144440448838121  -0.1260180846853533  0.4856409525909453
  0.1181433162275544  -0.0408200130082658  0.6570264395954958
  0.0370699521796446  0.0134493606142141  0.6945093490523147
  0.3856599106717876  0.4720790777824324  0.8677009621996757
  0.5215930099980070  0.4403887069021810  0.8740303260640635
  0.5345616505291144  0.3388287600452726  0.3701469358427134
  0.7120806126051359  0.4226948677068204  0.3511583372971251
  0.7010219930245224  0.5930547969021807  0.3517444253409988
  0.3116234845549585  0.5716940116297111  0.3535183178704234
  0.5104167760577605  0.6684296705604534  0.3662067766077639
  0.2478232021532745  0.4254353485933463  0.3779462210210392
  0.5251546244777281  0.3954445990096465  0.3423571373455587
  0.6292254180439734  0.4610225673456638  0.3424438290613830
  0.4115938538505804  0.4453632001973347  0.3503179571363197
  0.6183013289734400  0.5568580287985091  0.3420455851154782
  0.4012607770926284  0.5436160166721180  0.3436776104131089
  0.5057363242740545  0.6096222899822935  0.3414818843138619
  0.5725927538515244  0.8688358040146303  0.3831957315982617
  0.3712962151919280  0.8104731523316343  0.5386759881769545
  0.4495029592931616  0.6869894149118263  0.8866124633741772
  0.6735938783519450  0.4768608023790947  0.8875956166981679
  0.2172215045369757  0.1875465658225400  0.7749156220350839
  0.0675908861720606  0.3634648454270103  0.8690041426234832
  0.1386884418685633  0.7534684402555978  0.8308965583649692
  0.2970711848445713  0.0365142352250322  0.4265063097863614
  0.5580788180903503  0.1169812977992478  0.8351160503789633
  0.6141480964506473  0.0842928281781692  0.7293145690093490
  0.2634007162928053  0.3177982122462500  0.9167197898876815
  0.0482900583899233  0.4200575465850813  0.6037271236180366
  0.5436578369335456  0.2509614426355384  0.4991827450350558
  0.7808421159511604  0.7579228767798338  0.3872852894759211
  0.3695876086532270  0.8564356781367854  0.7179501724336067
  0.8535766118817325  0.8698323659490058  0.6188121649198917
  0.6771171179620588  0.1358085669812058  0.4314231667356098
  0.4859798743911580  0.3415180490520071  0.6839019518886896
  0.6412373666294031  0.4775065057531778  0.7778021490348811
  0.1498592606897723  0.2303510421391149  0.3835535835998320
  0.4496240305883379  0.8796814457552699  0.8803112081399797
  0.2321378931249879  0.5527613604846696  0.7572935533444042
  0.6540891225391141  -0.0341847605746123  0.8810574446959206
  -0.0255125209871557  0.6202527736314916  0.8067455791847584
  -0.0284780620380433  0.3230584727957374  0.4550998155070081
  0.0750763076538078  0.6269200413934534  0.3812534981466169
  0.6675948657025375  0.2910424114237192  0.7481135256520439
  0.6578853066490498  0.2632400450746851  0.8895040360330797
  0.5719224484741116  0.7071307310654961  0.5533570092868570
  0.3317305410524169  0.9083735800705962  0.6170232376918157
  -0.1199887029046127  0.6100144550903260  0.6448662392870083
  0.4054428356453119  0.0780022278584825  0.5947252425381875
  0.7582697887252933  0.1762957675887205  0.6194329055140172
  0.8792598328244693  -0.0655566937842477  0.3955484826108170
  0.9670901432884355  0.9662645029906344  0.7402296050415683
  0.7070528159899175  0.7211572863535073  0.6385835705307964
  0.1738642270415811  0.3270045297422461  0.5167908494357930
  0.7546840441024063  -0.0979894948791352  0.7566626002963937
  0.6414000107848337  0.6787896381186133  0.8245853902171226
  1.0078614558742609  0.8635992382758693  0.5059601383275962
  0.7637155443885593  0.8046598211117757  0.5069020504215296
  0.5210193195933986  0.0576591140898130  0.3687010799778024
  -0.1384235393291844  0.5109967596070989  0.7305940821196987
  0.8319057377236684  0.7758876307955306  0.8492541623868265
  0.9191855351848520  0.5073900837738275  0.8802490960765816
  0.9102335504981025  0.0378210431507106  0.5980336947954963
  0.0083901484603650  0.3691286803634826  0.7059841823394153
  0.4465297881392800  0.5331489641621308  0.7000962302717247
  0.3881025683358807  0.1472083905156415  0.6894280075645294
  0.2752575412704555  0.5680243884078247  0.8645921239758187
  0.3160754945994675  0.1418669886094646  0.8704485630231864
  0.8055134813417764  0.4595853297437808  0.5801600363993956
  -0.1479131455381781  0.2191332966261645  0.7131724979450705
  0.8145013446689698  0.4667734525745261  0.4854993210848453
  0.1727189168815044  0.3709584225128163  0.7762355479657067
  0.6485941406391850  0.3284271431636847  0.5888905497925051
  0.3439396358963823  0.1528857557800507  0.5102407752676142
  0.0708189737412968  0.5846671044619428  0.5262740876593707
  0.4665006479916328  0.5271798408199567  0.5521840884535488
  0.4022171928838771  -0.0345295870693551  0.7942381952256452
  0.0674175338491026  -0.1153000833747089  0.8948522802981508
  0.5481210619798276  0.7175477534388573  0.7180832088560613
  0.8855509909553778  1.0156983881780119  0.8762875261260697
  0.0443287370309523  0.0571792503918691  0.5143085837274984
  0.2652957681216854  0.7773341461191728  0.3906543537854362
  0.5821288506032306  0.4388593873307651  0.4770809283377214
  0.2567706171685505  0.4820313870405943  0.4719930241400371
  0.1286768405639655  0.7538480031359472  0.5602573417798634
  0.6287864654567344  0.0151091448614525  0.6001959335308565
  0.2464806713462330  -0.0121351906513756  0.9214333571418316
  0.9129307879104407  0.2131739856550862  0.8874858466397909
  1.0309898107849498  0.7512134405265082  0.6566384053605703
  0.1449372012078040  0.8248293695553796  0.7430501709721409
  0.6797019730640215  -0.0187557053604416  0.4977719347806575
  0.0887062612302350  0.4394399531419627  0.3821054724506350
  -0.0080795308163783  0.1189375223254225  0.7885126959982091
  0.1197554968820621  0.9340685060162744  0.3846960393595534
  0.4588850015725329  -0.0769966786242670  0.4631913641639909
  0.0829520390424541  0.0212195407906097  0.6624909092076973
  0.4360419341446718  0.4167765369463785  0.8687472194964229
  0.3246223523052748  0.3931204188525653  0.3711951453158671
  0.8941253243464651  0.6475705630700563  0.4559049178059543
  0.9261048919409638  0.1405863464356351  0.4189309433241423
