1-pos-1
1.000
11.0985002518  0.0000000000000000  0.0000000000000000
0.0000000000000000  14.4173002243  0.0000000000000000
0.0000000000000000  0.0000000000000000  26.7964000702
Pt  H  C  O  K  
96  168  6  81  4  
Direct
  0.0000000000000000  0.0000000000000000  0.0018699899937576
  0.1249999521128992  0.1666699702868031  0.0018699899937576
  0.2499999943280624  0.0000000000000000  0.0018699899937576
  0.3749999464409617  0.1666699702868031  0.0018699899937576
  0.4999999886561249  0.0000000000000000  0.0018699899937576
  0.6249999407690242  0.1666699702868031  0.0018699899937576
  0.7499999829841874  0.0000000000000000  0.0018699899937576
  0.8749999350970866  0.1666699702868031  0.0018699899937576
  0.0000000000000000  0.3333300219343480  0.0018699899937576
  0.1249999521128992  0.4999999922211510  0.0018699899937576
  0.2499999943280624  0.3333300219343480  0.0018699899937576
  0.3749999464409617  0.4999999922211510  0.0018699899937576
  0.4999999886561249  0.3333300219343480  0.0018699899937576
  0.6249999407690242  0.4999999922211510  0.0018699899937576
  0.7499999829841874  0.3333300219343480  0.0018699899937576
  0.8749999350970866  0.4999999922211510  0.0018699899937576
  0.0000000000000000  0.6666700318690679  0.0018699899937576
  0.1249999521128992  0.8333299447943854  0.0018699899937576
  0.2499999943280624  0.6666700318690679  0.0018699899937576
  0.3749999464409617  0.8333299447943854  0.0018699899937576
  0.4999999886561249  0.6666700318690679  0.0018699899937576
  0.6249999407690242  0.8333299447943854  0.0018699899937576
  0.7499999829841874  0.6666700318690679  0.0018699899937576
  0.8749999350970866  0.8333299447943854  0.0018699899937576
  0.0000000000000000  0.2222199683821562  0.0864100026098289
  0.1249999521128992  0.0555599860957249  0.0864100026098289
  0.2499999943280624  0.2222199683821562  0.0864100026098289
  0.3749999464409617  0.0555599860957249  0.0864100026098289
  0.4999999886561249  0.2222199683821562  0.0864100026098289
  0.6249999407690242  0.0555599860957249  0.0864100026098289
  0.7499999829841874  0.2222199683821562  0.0864100026098289
  0.8749999350970866  0.0555599860957249  0.0864100026098289
  0.0000000000000000  0.5555599783168760  0.0864100026098289
  0.1249999521128992  0.3888900080300730  0.0864100026098289
  0.2499999943280624  0.5555599783168760  0.0864100026098289
  0.3749999464409617  0.3888900080300730  0.0864100026098289
  0.4999999886561249  0.5555599783168760  0.0864100026098289
  0.6249999407690242  0.3888900080300730  0.0864100026098289
  0.7499999829841874  0.5555599783168760  0.0864100026098289
  0.8749999350970866  0.3888900080300730  0.0864100026098289
  0.0000000000000000  0.8888900002512240  0.0864100026098289
  0.1249999521128992  0.7222199606033073  0.0864100026098289
  0.2499999943280624  0.8888900002512240  0.0864100026098289
  0.3749999464409617  0.7222199606033073  0.0864100026098289
  0.4999999886561249  0.8888900002512240  0.0864100026098289
  0.6249999407690242  0.7222199606033073  0.0864100026098289
  0.7499999829841874  0.8888900002512240  0.0864100026098289
  0.8749999350970866  0.7222199606033073  0.0864100026098289
  0.2600186508741996  0.4454497327853083  0.1752269586585910
  0.4984020756410648  0.4449633068254618  0.1743301867102305
  0.1299874981005675  0.6125489286069705  0.1721185044415399
  0.8744339118094823  0.2859062612882596  0.1743835177881460
  0.0035343936126539  0.4483339291780500  0.1708157316433825
  -0.0039716140559488  0.1200076724963952  0.1711120429978630
  0.1242815243957212  0.9522962060649333  0.1721814180006592
  0.3688099434368298  0.9577348902207810  0.1736867145664042
  0.8801615315470853  0.6179167798548456  0.1727102385012816
  0.5013327394841119  0.1137708467453128  0.1706805313668339
  0.2483205118595211  0.1190737243375503  0.1742534597844266
  0.2486096585214297  0.7844859108945372  0.1727466200710986
  0.7495308975057998  0.1144852276099522  0.1703039734719836
  0.6298640240843572  0.2826007395221473  0.1704060824415777
  0.3811717827112623  0.6074585973689274  0.1712674871242787
  -0.0007837252604098  0.7790102919109675  0.1717908105096314
  0.7340864683206764  0.7791100312295381  0.1689949540959440
  0.6217637354182900  0.9475651898178665  0.1679673237191822
  0.8718815086146988  0.9387052498767740  0.1693748050861268
  0.7514149342337900  0.4502135684779464  0.1746258589004965
  0.3828566273457404  0.2815691621138519  0.1709630687890311
  0.1290324145163435  0.2905032626317076  0.1716880096000769
  0.4944606435279371  0.7773614939647380  0.1717169397062841
  0.6173020603742254  0.6079494759099785  0.1740433934924898
  0.3808958133162530  0.5176902449614059  0.2655523141115309
  0.1257716596324455  0.5175053242301649  0.2588108441892000
  -0.0132527572701677  0.0177265138912239  0.2601326304144844
  0.8615513523144001  0.1840642119200126  0.2617248540634904
  0.7462775984581069  0.3455195572749380  0.2622988767665290
  0.0119447296834993  0.6781061249610396  0.2598423042259061
  0.6255270903989077  0.8474462593077625  0.2553600380712979
  0.2623021105782158  0.6813850365855837  0.2583815325887662
  0.7638915953554171  0.6819041610321556  0.2549754722201759
  1.0016948174233675  0.3456007131211642  0.2585083544413695
  0.1260491704789673  0.8548137032846155  0.2592521052604269
  0.6165850272959309  0.1851950261186738  0.2606716357234871
  0.2436606351080103  0.0236386420618183  0.2643034845929265
  0.3719907780990874  0.1822536439708203  0.2584027438036500
  0.8784728523314445  0.5170025994004644  0.2590005363861624
  0.4957849609191645  0.0119097475622095  0.2568329734990643
  0.3717628299941541  0.8464652422671267  0.2568192345677512
  0.5028421640928362  0.3496428545133352  0.2606000477342433
  0.1167834742076786  0.1875582063306371  0.2608945769612784
  0.7430037710421813  0.0163569183710642  0.2567871774706132
  0.8799840182024619  0.8513752780643065  0.2608983784681873
  0.2427037181139076  0.3512285179416009  0.2645961567309545
  0.6250005111433862  0.5130106835629212  0.2700490403092414
  0.5068878688170144  0.6863183538081883  0.2572498692003799
  0.8753724299302807  0.5822147635208553  0.3900850743874560
  0.9567144389871878  0.6745385793734608  0.3871942319647029
  0.3109718375453702  0.1022503879967288  0.4311171789208839
  0.2945013131994926  0.0723981816609967  0.4879064053846401
  0.5156643861472908  0.6217594702502792  0.7760684241136867
  0.3910514663452936  0.5753048021584577  0.7740682174195194
  0.6956864148512105  0.3422664660047049  0.8783096197751439
  0.7942664948870295  0.3467290039208926  0.9220257675088366
  0.3476404292800053  -0.1692793444216769  0.8598469089668295
  0.3491412797933257  0.8110355871754571  0.9201981132876839
  0.1860730603366944  0.5672589084616279  0.9125815164289522
  0.0432983155288989  0.5429158164166649  0.9076360358661592
  0.0431746666872657  0.7616012350976148  0.8442621793723334
  0.1137186749980301  0.6838245935035092  0.8202743577240502
  0.3917178893873438  0.2294033275193576  0.3718727480890915
  0.3043990074021111  0.3105797624130010  0.3481199600230620
  0.6540437513278176  0.2508550849003076  0.7336246515800461
  0.7284517223026405  0.1674223561309791  0.7610487615640301
  0.2894693163140628  -0.0567892398203667  0.8280732602502298
  0.3931442113624623  -0.0624824816425530  0.7835736541995615
  0.9004957439073001  0.2656852880086278  0.8790815544135956
  0.9780733195315706  0.2540932743444944  0.8322702382437428
  0.3628547059452344  0.3637231078230256  0.7161121071833877
  0.2669989572527515  0.3950502635507498  0.6789938462604914
  0.5107684916149474  0.2951829486582415  0.4612389045812508
  0.4500293478922927  0.3456856552241202  0.4138639158225267
  0.5066821080341888  0.9687219152903578  0.3486644437918435
  0.5251691998073970  0.9315643624222367  0.4057932144397500
  0.4996168128752972  0.6627187173223967  0.6132458087037864
  0.4459101823507515  0.7565270996588107  0.6200140768750657
  1.2503602031769427  0.0691222362783519  0.3462317662295879
  1.1399360695286838  0.1158895190088283  0.3679892169047767
  0.6253782860863853  0.5202552000101793  0.5062951104349123
  0.5199359909969922  0.4386475658556978  0.4938805600726062
  1.0174413767994108  0.1063235853142835  0.7154245350299742
  0.0997005197635184  0.1795118129424719  0.6846308490184844
  0.8937868916019696  0.3448752736951077  0.7683952184233200
  0.9855866243032201  0.2660236213598178  0.7457401608517951
  0.8068905886313420  -0.2652392818493636  0.3842094871448588
  0.7683141304805605  -0.1903195387424363  0.3420697686288719
  0.5380734434034425  0.2540518732228756  0.8574144065549667
  0.4853967002727496  0.3540535747460192  0.8587162989848679
  0.3057773699153271  0.3567409469514407  0.9197237063387393
  0.2528222295120388  0.3656760727167263  0.8681176180777321
  0.5523008512258994  0.8164253473934645  0.8875687656995966
  0.6477617717523616  0.7757911729373766  0.9277485040405449
  -0.0665982731838136  0.8094041851213917  0.4917634735627996
  0.9238368640066564  0.7087834447448464  0.4674959887963227
  0.1240248354886288  0.4508485736701507  0.3656049844506922
  0.0736976224573536  0.3532526230754328  0.3382556433123275
  0.1781093786234228  0.4971292125428421  0.4461612329073861
  0.1994551625244123  0.4776890764397175  0.5025701800584994
  0.7720843781942742  0.0279607870772194  0.7086151078374415
  0.6949181004657946  0.0220584427772392  0.6580090018027709
  0.8248819143573216  0.5748280605082828  0.9180701415358584
  0.8593894368883849  0.4897899830093088  0.8829772588338358
  0.6416341487801523  0.3757568754633484  0.6182829016023249
  0.5588304502037655  0.4302696219049700  0.5777948403083549
  0.3377675630715977  0.6553780340908982  0.5207996227194648
  0.4186113112486977  0.7185953302573345  0.5494488736221540
  0.2095733806667048  0.5278422907760104  0.6620090395324358
  0.1185891072792956  0.4712241639769180  0.6298423012787191
  0.2899273476592597  -0.2583059053125055  0.6793845098336794
  0.3912097298007289  -0.1803698976884043  0.6919398758984722
  0.7871624371665088  -0.0582478378083975  0.5741065012612785
  0.8428205431975299  -0.0168157630435813  0.5227945741293540
  0.5105066211158654  0.1394386871136692  0.3415272636893308
  0.4895469298132255  0.0897669333901131  0.3913101787452801
  0.8113438726137416  0.4719107918993438  0.7520152641962550
  0.6856531242827898  0.4159405065792169  0.7524829695770959
  0.8046613070402561  0.3544861131757517  0.6789641196368437
  0.8305115834641782  0.2863285510100023  0.6345267787149101
  -0.0527098273575407  0.1410474566918255  0.5411192148315979
  -0.0615506791279487  0.0972907307455411  0.4869240669275697
  0.5218958453382552  0.5758240937653136  0.6840973222588246
  0.5441562347327530  0.5068838877949370  0.6402057683814824
  0.4998189281385407  0.4560442565119179  0.7638187327432016
  0.5454072230541479  0.3577918814512621  0.7899462435866674
  0.6910201308015614  -0.0685547501559355  0.4725493970431487
  0.6973366231932818  -0.1184495867625532  0.4217049071851561
  0.0384639689701106  -0.0369830160574247  0.4871664277552551
  -0.0262061105195568  -0.0697101016184739  0.4339579291933302
  0.7437805315507556  0.0283142116519128  0.3996977619546363
  0.7866526248971364  0.0642365285796749  0.3468754657173852
  0.3792635918008224  0.5671269759381729  0.8831567824820645
  0.3402008015080811  0.6775395181572060  0.8863305904181007
  0.6826234986002976  -0.0733973354537242  0.8827748027469813
  0.6693765507727156  0.0158006920544003  0.9156103264887878
  0.0737706755079104  0.8973029314112179  0.8894249814886465
  -0.0301935808079701  0.8371697828527407  0.9177484885609282
  0.9087561047056100  0.8696829729789981  0.6295950769917760
  0.7986904044591392  -0.1019678045007471  0.6583322848959217
  0.3000551241560679  0.1315924884259747  0.7078908717628510
  0.2908801291937094  0.2320488880616644  0.6864137172349180
  0.0975254426492854  0.3767158872814346  0.7930192394176102
  0.2230282131316390  0.3890311691260021  0.7679134171938200
  0.0899725271924060  -0.1310078195442244  0.6885305560024911
  0.1800401100478353  -0.1469168710747883  0.6507440676366141
  0.5766278199581127  0.5273079920182571  0.8716576961013281
  0.5016891265823920  0.4824762497610910  0.9181037236064963
  0.2006691317629871  0.2164628296731973  0.9079768354502853
  0.0674818332124228  0.1998159497049574  0.9008489568845218
  0.8019863102004636  0.1470524167851222  0.6175069361052609
  0.9380968900380414  0.1579035784219117  0.6378228905720482
  0.9129102094363390  0.0453306423555268  0.7667349933228047
  -0.0036790873247381  -0.0376488189089060  0.7530154808085532
  0.7289780281608624  0.2890610581706425  0.5038283997414297
  -0.1457089781781754  0.2383304846013104  0.4920517011038039
  0.5033632849441928  0.1180675520740671  0.7516238281275098
  0.4156786792478360  0.1112824497818140  0.7984897259872976
  0.6686980041196415  0.0723206927426403  0.5779118535635603
  0.5942799415831248  0.1456881065055286  0.6120083610013664
  0.2158913975436812  0.0860190531865139  0.6201742535737549
  0.1317660371060334  0.0032722346046789  0.6323074250650094
  0.8829066104414213  0.3830247132672246  0.4975161185597456
  0.0028419689403426  0.4541893901857713  0.4932115491811045
  0.3962477364621183  0.5108608050754248  0.5477160257105557
  0.2896816111959427  0.5253727769456754  0.5800970011560206
  0.2713905508459575  0.6032023084767413  0.8292763250990731
  0.1930686012420891  0.5350630913891886  0.7947115983905019
  1.2422602221740662  0.9448592315668034  0.9164854184092909
  0.1795557764641939  1.0384371958951077  0.8967352310552607
  0.1252100429492374  0.6591800857473942  0.6934593031197905
  0.2253461713617006  0.6296586436480871  0.7261757528594313
  0.8940280293808840  0.6184757295315970  0.8187489003979574
  0.9030826134165696  0.6572057169919998  0.7619083444609736
  0.4776341979395151  0.1576979734435952  0.4789314967674392
  0.4811374098886876  0.2081225175738952  0.5300048829728492
  0.1179056916440372  0.6951820843341443  0.3424874762750735
  0.1471776972330185  0.6459437448908476  0.3912489807561583
  0.4997984553994457  0.2835352720899918  0.6018432220615682
  0.4280473411558030  0.2025285835401108  0.6305635078829410
  0.2663966008669041  0.7760900930079135  0.5042592347741115
  0.1217009606483487  0.7882580527972448  0.4974790430982136
  0.9224801006279686  -0.1427375978223354  0.3704914621289240
  0.9750230142081546  -0.0459224839948941  0.3528507041404771
  0.5780906720040337  0.7794630393601049  0.7641760260130033
  0.5955785311738817  -0.1187735150103765  0.7412404671584585
  0.2036540479722405  -0.1226375506157462  0.7627698127268424
  0.0855089277622068  0.8137763354698846  0.7764107799031199
  0.4410034055823167  0.1262268657368102  0.9035241658011003
  0.5339450382261242  0.0880186040907401  0.8672963095608290
  0.9321159079779442  0.4068848458404645  0.6242341058902974
  0.9817716041978564  0.4497089514770645  0.5735637704705043
  0.7270833103681057  0.5841120437726668  0.6409968238346204
  0.8590717468473879  0.5527818906668392  0.6319476823579762
  0.7650841218769940  0.5844705376667794  0.4653639685566512
  0.8146876757545292  0.5175476254301477  0.5068247697385060
  0.9247866286379894  0.4456289126566996  0.3779884434836475
  0.8141731940614667  0.4613008408738267  0.3441298208431762
  0.7599706268179840  0.0595629822810112  0.8357588211785811
  0.8623513041005488  0.1309118435862799  0.8295960673098758
  0.9708084950263929  0.2085191940744207  0.3505460533613346
  0.9312021946860645  0.1461356959015740  0.3938666303402906
  0.2104732938868158  -0.0712218826843398  0.5189809398713088
  0.1797755326875272  0.0088626585221994  0.5555383154715263
  -0.0369181921434427  0.7648436716961958  0.6842892179980481
  0.9091048883351254  0.6694043079323184  0.6706618856794022
  0.7185734699881245  0.6646223540000697  0.7985943548625440
  0.6292834236560286  0.7289666338629829  0.8304526345368117
  0.3936218874159579  0.4361588319428446  0.3457552720002679
  0.6099150926452565  0.4514471676486166  0.3581112363362464
  0.7086692278467440  0.6160296017093742  0.3602689448063591
  0.3481607147842620  0.7108573235248418  0.3648735723338163
  0.5818632154423429  0.7338073843373588  0.4057958266525777
  0.3772778276435052  0.6656370326203668  0.4275899477610121
  0.5395450117982219  0.7154634590333521  0.3396945025321851
  0.6233948126349674  0.5656404949697126  0.4157098095870032
  0.4314792310540640  0.5071036038964759  0.3425337088658974
  0.5655882616916588  0.5149131909306854  0.3457491329368277
  0.3555392788823002  0.5722267689407542  0.3685522031327952
  0.6156690951096564  0.5955673598187068  0.3766597517598814
  0.4056645771999513  0.6633746354105879  0.3883244685420288
  0.5370098955517328  0.6827042321495315  0.3801192923607509
  0.8764409693753358  0.6495181481285038  0.4003859103757560
  0.3338208191506886  0.1162968030917458  0.4652228761901357
  0.4720640551636952  0.5673358111259791  0.7608796248035650
  0.7836706844322856  0.3399578432818527  0.8865798992126588
  0.3801287718956233  0.7901872762487424  0.8871307162202170
  0.1239951979707176  0.5186011943760449  0.9157502043190255
  0.0396857175120184  0.7206804478682816  0.8145254523040526
  0.3341832936119878  0.2835517311146571  0.3814928717372184
  0.6731141498769975  0.1847146113536177  0.7315715477841679
  0.3295304793011871  -0.0965728797097031  0.8009978551137448
  0.9654489592016896  0.2239828829989415  0.8645960413191830
  0.2807100855176105  0.3510309345205941  0.7076556295630224
  0.5186088608923989  0.3527398337331162  0.4375379044903360
  0.4638505400101305  0.9428769985720411  0.3799337741162488
  0.5033677780287420  0.7268050161318440  0.5964306406319717
  1.2084486075967598  0.0752263727970372  0.3780305954517119
  0.5493895708216161  0.4849047343702266  0.5183391857828883
  0.0264589598538211  0.1721093935130616  0.7048355524891606
  0.9712727041612409  0.3087774932158732  0.7731026181400559
  0.7816196326519957  -0.1990499032102479  0.3760919698130474
  0.5567263146295728  0.3186551884628634  0.8484024258423576
  0.3123193381229887  0.3303906589301309  0.8853454792938136
  0.6382111689776481  0.8039055380608011  0.8940014230098484
  0.9400890435721564  0.7440816124380081  0.4969686681984445
  0.0771758624469178  0.3924208469186328  0.3712081583063839
  0.1508395023668616  0.4567114883965522  0.4749993633344421
  0.7248331217630327  -0.0127031523621401  0.6865672898188926
  0.8880742866137671  0.5549460811612156  0.8938268643382452
  0.5551362686954712  0.3909321343395727  0.6076759174680610
  0.3845324256408285  0.7118572813724077  0.5157408029696151
  0.2087038651482963  0.4781024144091909  0.6379437893305200
  0.3362518790585914  -0.2019437995535923  0.6655180901494465
  0.7682073633342691  -0.0304252770127285  0.5414952411960947
  0.4894259567835783  0.1512822208920809  0.3753124030561220
  0.7756338918047830  0.4133466536790069  0.7383898229749158
  0.8002657302241823  0.3485544629104780  0.6424970533988411
  -0.0459196760226540  0.1531232041196663  0.5055938159531621
  0.5526772337825717  0.5711086704029412  0.6502657316375090
  0.5407511380221528  0.3901284398531064  0.7579234890244126
  0.6757598924038076  -0.0590504035051636  0.4377400895557107
  -0.0380059349849174  -0.0657748832754187  0.4732900334849099
  0.7824444243889258  0.0793261901193105  0.3821414174730066
  0.3124214343048414  0.6106323642245886  0.8808561026243787
  0.6660360760095613  -0.0054895942561148  0.8816397876135932
  0.0139695883211657  0.8434261586787757  0.8865289605717809
  0.8235805469678260  -0.1409904368415615  0.6280738356648362
  0.2949491135046910  0.1648312234279898  0.6754494915616817
  0.1786268523874180  0.4012523046408903  0.7993254155963994
  0.0994216304064183  -0.1201974275724107  0.6522751076267815
  0.5035527126193112  0.4915696894245746  0.8819357962221831
  0.1413471580311561  0.1719821349645500  0.9213907259899976
  0.8832410552507006  0.1766957998076708  0.6107775301803010
  0.9618892014503129  0.0206328285096417  0.7393346434781802
  0.8008618456046300  0.2856711239361023  0.4802021376375114
  0.4240016463428739  0.0918036578144618  0.7617816487484486
  0.6675481504087377  0.1012447090919112  0.6106597586142797
  0.1385256557570158  0.0584205807672909  0.6119782228373636
  0.9304393480574287  0.4355030829154320  0.5107799642841294
  0.3144350520813852  0.5339305248027982  0.5449789857459388
  0.2354461723038837  0.5969495992664510  0.7936637018213196
  0.2092048361330110  0.9760761030960118  0.8862196279308930
  0.2161308980383151  0.6526122679294368  0.6917734934184255
  0.8575246199103752  0.6188341470729958  0.7849653457216429
  0.5225618646500808  0.2088395258722018  0.4980889446766788
  0.1056192149934749  0.7006787889644904  0.3778175374220868
  0.4755272775926684  0.2172150878651797  0.6002355140303722
  0.2000052412973537  0.8216850141979464  0.4918451562251821
  0.9887575317142725  -0.0943055510079741  0.3779206854790184
  0.5349841789512982  -0.1604909095046846  0.7557413377971279
  0.1184435670113898  -0.1390170391209504  0.7518269680412947
  0.4760433364808115  0.1378496098631736  0.8686355302884636
  0.9883593592405381  0.4548143417411820  0.6098596257664408
  0.8132929524271598  0.6097533721731753  0.6336396345150280
  0.7484109728026415  0.5600635733859836  0.4980501575710498
  0.8389744926563248  0.4666823334482290  0.3788017850050049
  0.8007653425838884  0.0976893437389997  0.8077893072201188
  0.9984803346202326  0.1875511357072601  0.3836251427978951
  0.1984397726839542  -0.0013719504756280  0.5197889752022963
  -0.0240382397213291  0.6964576161753280  0.6919905227912057
  0.6355250077194939  0.6898059718377588  0.7998759457482613
  0.2435643734532136  0.5577399525153066  0.3811072277897879
  0.7296185013003613  0.7427427611829399  0.5569675703900852
  0.7035679030897510  0.2643967486489016  0.3776569190297385
  0.1538883918773621  0.2670011539408655  0.4455724436163370
  0.2371063855292708  0.8619044004823957  0.3717082956780044
