1-pos-1
1.000
11.0985002518  0.0000000000000000  0.0000000000000000
0.0000000000000000  14.4173002243  0.0000000000000000
0.0000000000000000  0.0000000000000000  26.7964000702
Pt  H  C  O  K  
96  168  6  81  4  
Direct
  0.0000000000000000  0.0000000000000000  0.0018699899937576
  0.1249999521128992  0.1666699702868031  0.0018699899937576
  0.2499999943280624  0.0000000000000000  0.0018699899937576
  0.3749999464409617  0.1666699702868031  0.0018699899937576
  0.4999999886561249  0.0000000000000000  0.0018699899937576
  0.6249999407690242  0.1666699702868031  0.0018699899937576
  0.7499999829841874  0.0000000000000000  0.0018699899937576
  0.8749999350970866  0.1666699702868031  0.0018699899937576
  0.0000000000000000  0.3333300219343480  0.0018699899937576
  0.1249999521128992  0.4999999922211510  0.0018699899937576
  0.2499999943280624  0.3333300219343480  0.0018699899937576
  0.3749999464409617  0.4999999922211510  0.0018699899937576
  0.4999999886561249  0.3333300219343480  0.0018699899937576
  0.6249999407690242  0.4999999922211510  0.0018699899937576
  0.7499999829841874  0.3333300219343480  0.0018699899937576
  0.8749999350970866  0.4999999922211510  0.0018699899937576
  0.0000000000000000  0.6666700318690679  0.0018699899937576
  0.1249999521128992  0.8333299447943854  0.0018699899937576
  0.2499999943280624  0.6666700318690679  0.0018699899937576
  0.3749999464409617  0.8333299447943854  0.0018699899937576
  0.4999999886561249  0.6666700318690679  0.0018699899937576
  0.6249999407690242  0.8333299447943854  0.0018699899937576
  0.7499999829841874  0.6666700318690679  0.0018699899937576
  0.8749999350970866  0.8333299447943854  0.0018699899937576
  0.0000000000000000  0.2222199683821562  0.0864100026098289
  0.1249999521128992  0.0555599860957249  0.0864100026098289
  0.2499999943280624  0.2222199683821562  0.0864100026098289
  0.3749999464409617  0.0555599860957249  0.0864100026098289
  0.4999999886561249  0.2222199683821562  0.0864100026098289
  0.6249999407690242  0.0555599860957249  0.0864100026098289
  0.7499999829841874  0.2222199683821562  0.0864100026098289
  0.8749999350970866  0.0555599860957249  0.0864100026098289
  0.0000000000000000  0.5555599783168760  0.0864100026098289
  0.1249999521128992  0.3888900080300730  0.0864100026098289
  0.2499999943280624  0.5555599783168760  0.0864100026098289
  0.3749999464409617  0.3888900080300730  0.0864100026098289
  0.4999999886561249  0.5555599783168760  0.0864100026098289
  0.6249999407690242  0.3888900080300730  0.0864100026098289
  0.7499999829841874  0.5555599783168760  0.0864100026098289
  0.8749999350970866  0.3888900080300730  0.0864100026098289
  0.0000000000000000  0.8888900002512240  0.0864100026098289
  0.1249999521128992  0.7222199606033073  0.0864100026098289
  0.2499999943280624  0.8888900002512240  0.0864100026098289
  0.3749999464409617  0.7222199606033073  0.0864100026098289
  0.4999999886561249  0.8888900002512240  0.0864100026098289
  0.6249999407690242  0.7222199606033073  0.0864100026098289
  0.7499999829841874  0.8888900002512240  0.0864100026098289
  0.8749999350970866  0.7222199606033073  0.0864100026098289
  0.2533409940179968  0.4504191304523724  0.1775021090496989
  0.5026319201997821  0.4449481695392429  0.1732869120902531
  0.1290942264264607  0.6147831569020648  0.1711698831478808
  0.8766560517960089  0.2854231188904715  0.1757151277994357
  0.0127481826454032  0.4511860583534342  0.1714166864454385
  0.0015794501421178  0.1161283432926007  0.1690097671640785
  0.1244457998166011  0.9473640440308688  0.1693667082970271
  0.3743428252683224  0.9584001513480920  0.1680589596401853
  0.8855180577399244  0.6111713837066760  0.1723286148513431
  0.5118460939421682  0.1174895683898573  0.1725937970206414
  0.2364935598640286  0.1222619746885089  0.1732835484369354
  0.2517570670637987  0.7798523368091890  0.1718483542690901
  0.7602687980685964  0.1109226977117795  0.1738542997938316
  0.6256155020381147  0.2859725735024139  0.1702462045554148
  0.3781704861987359  0.6164163444499188  0.1715047454643298
  0.0004441823298784  0.7826537617342194  0.1752733059252666
  0.7487028787562837  0.7760754497947797  0.1694950684234243
  0.6240221738136880  0.9485975844734841  0.1688265049241084
  0.8800176810300083  0.9424712000238401  0.1695534687979485
  0.7532379973901582  0.4481994394837359  0.1737659675964544
  0.3728976543951318  0.2787185000647445  0.1736202996974166
  0.1302746569353373  0.2867675809116847  0.1716307624028422
  0.4948909865194800  0.7843753103677261  0.1675788610423775
  0.6302568409786302  0.6116232607223893  0.1771660316745139
  0.3862747947592924  0.5157720573208803  0.2652358103655881
  0.1302827171414886  0.5191340577332948  0.2586629268200901
  -0.0027492738485140  0.0175385422489721  0.2557328641700957
  0.8666558235685961  0.1815322867514935  0.2607932465141703
  0.7422157943424844  0.3446451092018687  0.2631541107919937
  0.0087793743018744  0.6890117183629856  0.2591214595658251
  0.6234613041503305  0.8543068853446183  0.2551353110301944
  0.2658911328511612  0.6747569254473460  0.2593402943154420
  0.7554440079811865  0.6835946936922802  0.2570514275893400
  0.9944062366453582  0.3458287060705278  0.2597182089298481
  0.1299062394548460  0.8476425415558931  0.2585491509885600
  0.6149875385454013  0.1812337862116528  0.2563029054913173
  0.2376996901876125  0.0191932922596426  0.2628682531700769
  0.3642381240334135  0.1898136748160053  0.2574929154783477
  0.8833390984705333  0.5174392358790050  0.2594332943898353
  0.4889302536998118  0.0139994199718345  0.2558212048238327
  0.3730130715750154  0.8509972134325654  0.2540731581579639
  0.4966151389694380  0.3466598976884843  0.2604054304988558
  0.1170677939201090  0.1852397916149844  0.2603545771791401
  0.7501461357042124  0.0163093791584975  0.2599514852797915
  0.8827665066648099  0.8499168125005139  0.2624138053685775
  0.2516530438738355  0.3475500933007230  0.2628518497913078
  0.6296625314728094  0.5157750166960293  0.2692010923072534
  0.5044796437331194  0.6863365756524943  0.2579860930792710
  0.8900856598888526  0.5798681326486635  0.4047249890876500
  0.9829874620069159  0.6627782728623830  0.3993937814916391
  0.2868081028320691  0.0879896141901694  0.4218964355727959
  0.2768777525595514  0.0618121534223144  0.4838928854932274
  0.5210779776809987  0.6113739162096113  0.7761617516425133
  0.3956234391207837  0.5588724928485154  0.7697036157419207
  0.6925461268294710  0.3477526533538929  0.8645888407736062
  0.7402920415006049  0.3503094149269002  0.9208567269206258
  0.3310109578818256  -0.1649169471405276  0.8526187679556270
  0.3291063413552303  0.8134437816126847  0.9115937147007105
  0.1866156094166049  0.5462578327061495  0.9115746134632809
  0.0569394277481328  0.5059373072155162  0.9042580932894374
  0.0766693887097038  0.7538419435340357  0.8437102364224874
  0.1348672824922663  0.6835538186885810  0.8074683226222822
  0.3915053581311845  0.2392778063874642  0.3775518518008337
  0.2956869476186896  0.2967374835192291  0.3518991995005551
  0.6447709333916005  0.2427762423300680  0.7406719089469045
  0.6891661987897419  0.1503141606531413  0.7643097665113766
  0.3332996694846279  -0.0414245628590978  0.8175914742131435
  0.3913650311532446  -0.0991695408888122  0.7720659919131290
  0.8892923229964583  0.2770664551444441  0.8787839601815678
  0.9383790782913140  0.2471811337946267  0.8241863496231627
  0.4155310665377553  0.3488067214778532  0.7179540596162032
  0.3305742707898723  0.3982438838530028  0.6798565668102458
  0.5183162515013712  0.2958983656114527  0.4557239184632332
  0.4683664088809603  0.3470607162682529  0.4077244812391867
  0.4690654138117159  0.9008616011761386  0.3382946021089295
  0.5352007084774033  0.9192717082607255  0.3880559757339967
  0.5127831513881337  0.6679167266538311  0.6206386486629236
  0.4478536197351406  0.7550923010780657  0.6290639837978127
  1.2309688504069958  0.0986800624018410  0.3440876728681854
  1.1217879958042782  0.0954627687006375  0.3785148147858765
  0.5550336414238437  0.5130547977722465  0.5132261494294578
  0.5262937956551986  0.4193022395559853  0.4741713187522642
  1.0110710742273552  0.1294574548259864  0.7184574853362498
  0.1270819885030189  0.1768364078596959  0.6929136231119651
  0.9039625969619514  0.3438018584190690  0.7663476664179664
  0.9916384237694683  0.2706893880258003  0.7395199099351294
  0.8145791141405575  -0.2553719156444049  0.3808075948249506
  0.7584484473327640  -0.1738629014727134  0.3401370268365295
  0.5207069338186235  0.2333980512126970  0.8547678118290255
  0.5009636819711983  0.3396721572910001  0.8666927864473648
  0.3438442807244231  0.3616983889335071  0.9256666585854145
  0.2823163897294889  0.3655021519159529  0.8750531013222400
  0.5424582818046587  0.7657711898925265  0.8947202725661146
  0.6878431810966424  0.7808279689720188  0.8984478887249391
  -0.0486242274141929  0.8197230380886936  0.4905671277023103
  0.9266743096601711  0.7076608419240547  0.4709474133778975
  0.1631294951411446  0.4450656129005974  0.3755586467262686
  0.0771157232673119  0.3769034468770545  0.3393929546235544
  0.1961059463369395  0.5135966465982030  0.4499120467009066
  0.2133435003541115  0.4941234446164061  0.5068487241427662
  0.7840568063949629  -0.0052290089009130  0.7185072323916941
  0.6860358895216617  0.0242883025013098  0.6740312010711517
  0.8829800992535577  0.5757678367416420  0.9062715107656155
  0.8600422416489943  0.4923239661914321  0.8810985117682555
  0.6528340667131938  0.3911312641596733  0.6153084366745289
  0.5627527940801771  0.4043226173562621  0.5692734858987402
  0.3599623144444284  0.6334615052828605  0.5185709536503530
  0.4324366569637744  0.7157934389689840  0.5403995343876025
  0.2425775887659560  0.5537135692745553  0.6600308145782955
  0.1554137672178054  0.4811888072641445  0.6415477677136984
  0.3073319268652359  -0.2512549455961599  0.6836570557465657
  0.4071494236500225  -0.1699641407875985  0.6874834986020010
  0.8227182497670446  -0.0592481070318749  0.5809116206288906
  0.8435622078020485  -0.0339903257736171  0.5220250757323311
  0.5029880097623660  0.1237795937475281  0.3434323952841070
  0.4885249264575774  0.0945413615374843  0.4004071461312497
  0.8052764157527051  0.4840281582288282  0.7660770914459176
  0.6894454035317968  0.4107296667596108  0.7540409591574362
  0.7922870010183477  0.3580921204511204  0.6806397584981225
  0.8040256028874491  0.2841338299729340  0.6371710084627261
  -0.0661470994768807  0.1681255957696260  0.5504544950835968
  -0.0611803824836491  0.0794382789414103  0.5126518268652447
  0.5451445406075239  0.5613194554456137  0.6876315187013281
  0.5530015690277249  0.5009346387215610  0.6346700977947097
  0.5339792825917030  0.4484529282398236  0.7544377266288931
  0.5260648235470449  0.3476554111672013  0.7847953706172234
  0.6899670338573952  -0.0526443203160008  0.4738095621105285
  0.7273244776104605  -0.1236255490883029  0.4317568690305663
  0.0511319110713146  -0.0317883022320326  0.4973472346541410
  -0.0157949371377064  -0.0460197450824892  0.4472197094126515
  0.7671081687202922  0.0212520518705420  0.3982199275665746
  0.7518579230600689  0.0424399668509857  0.3390883664744516
  0.3867294502069220  0.5770432851760864  0.8858612123536200
  0.3343688878232116  0.6794868657925615  0.8770469142060614
  0.6223771439010167  -0.0628438725076207  0.8884038062476323
  0.6885710236714705  0.0149249652675834  0.9218163485351947
  0.0737736065886206  0.9046452750853534  0.8799493521304188
  -0.0189065417073778  0.8606508300067293  0.9153057920894423
  0.9388939778696666  0.8952557535456801  0.6367447037214148
  0.8051833187236869  -0.0992458234509348  0.6546036526603135
  0.3011159098237612  0.1444825144716814  0.7058559520924046
  0.2989744854636414  0.2402234680431063  0.6752127541311543
  0.1054091512238569  0.3715723561871030  0.7812193106521176
  0.2482757357286273  0.3920467877039325  0.7634214903870599
  0.1063391047280095  -0.1328979832764098  0.6961392745081810
  0.1813331503572837  -0.1519772485910332  0.6474054295596475
  0.5961092976888479  0.5101148654797525  0.8805290885673769
  0.5238195944138601  0.4940369489354812  0.9316035652662832
  0.1986294393012666  0.2272492071835921  0.8972116737478072
  0.0626864553332027  0.2117142709531250  0.8961834779406159
  0.8279668532880972  0.1365072981613349  0.6238167400362759
  0.9584415348258252  0.1766923185040135  0.6422983485733403
  0.9003727664897182  0.0331127336375614  0.7763569972011068
  -0.0024235500644006  -0.0364780091499783  0.7555573095699376
  0.7010044578084494  0.2592366012119627  0.4911098838435046
  -0.1643991771234209  0.2227054847126133  0.4881856928964101
  0.4863135539438885  0.1477014979067200  0.7424788125859439
  0.4134566292374303  0.1157408954685910  0.7916515041470520
  0.6603165083869263  0.0581751632033259  0.5930830432097435
  0.5695370933090561  0.1271252143734135  0.6181276169749460
  0.1884106486064061  0.0836105547187166  0.6244648408988733
  0.1416927029708318  -0.0183171787846169  0.6314318614206940
  0.8671301182282863  0.3990472510451820  0.4950646326762723
  -0.0016771107787272  0.4600861243438565  0.4881623982039005
  0.3807707587081067  0.4751142927962839  0.5420129522454766
  0.3007457361149906  0.5167133640973824  0.5815835208823886
  0.2651473706929668  0.5886741224543010  0.8142517955411742
  0.1919792708978348  0.5079480400953892  0.7864878441764025
  1.2293154683027765  0.9946977058942593  0.9140509098958676
  0.1645209159502305  1.0476258021555722  0.8713478143717582
  0.1123504681002074  0.6712874550387536  0.6883481061253737
  0.1970335724455509  0.6287300582408528  0.7275065069647058
  0.8725202388160024  0.6004601394100691  0.8109625374181021
  0.8986789391550789  0.6493387990714841  0.7569642922281018
  0.4619040806678877  0.1496617689117148  0.4838136346686974
  0.5115257726357445  0.2048653553195606  0.5291733897072751
  0.0820179674683854  0.7183186385509860  0.3441676112328310
  0.1559657330385033  0.6407725853852461  0.3744341730872326
  0.4522885088627971  0.2581159093245338  0.6261071151739517
  0.3776809163941023  0.1743898578710546  0.5978288111138965
  0.2698497257153524  0.7610001708855099  0.5001016559423230
  0.1259148717299307  0.7678925711722511  0.5035124802717315
  0.8989184830069222  -0.1188140753920639  0.3791552409123353
  0.9979256628123006  -0.0493679994053504  0.3571040957528359
  0.5876471654845649  0.8223227255556181  0.7528354291789551
  0.5672154906766805  -0.0941764616520583  0.7195675867536816
  0.1907482900905150  -0.1078531446531972  0.7666152049821473
  0.0829600416912791  0.8154688169900289  0.7716808384159068
  0.4036515143001801  0.1200765494487061  0.8975952958751477
  0.5309018712725961  0.0811473083378066  0.8797659774163853
  0.9214544111526584  0.4132651980332390  0.6211331628277100
  0.9715037956638594  0.4604052655234405  0.5688126430479226
  0.7514679129774635  0.5602325077122519  0.6376838401439968
  0.8845084629887614  0.5536204695485929  0.6225447255787107
  0.7577316184802612  0.6163296263209661  0.4637025511467242
  0.8155219071272318  0.5458156237279903  0.4996355566130370
  0.9465797493220902  0.4470611054375087  0.3873409945667575
  0.8429442992518470  0.4696777559287301  0.3480090119482381
  0.7555966096626366  0.0437882803353117  0.8405694556318021
  0.8531066085045506  0.1177517902234311  0.8351989607734259
  1.0000404196503871  0.1908307406308161  0.3378294312588397
  0.9164024375230766  0.1230342695652732  0.3626438936029616
  0.1974102441403884  -0.0711578985412860  0.5122304190279823
  0.1724464655744452  0.0030377796132858  0.5556001096041585
  -0.0417411326926686  0.7699178517064517  0.6876911174420476
  0.8982101074677383  0.6760998987085510  0.6839440540217017
  0.7052367744669442  0.6489898227984146  0.7914651389977440
  0.6198834583604401  0.7179259591025509  0.8273474805802349
  0.4114502559261905  0.4281987643147481  0.3528725999771739
  0.6121059104628311  0.4594192639642831  0.3634735513085399
  0.7055855243801923  0.6205187354509962  0.3679236039942591
  0.3373081412682624  0.7171748036898511  0.3585951424865512
  0.5530210977653995  0.7545277056008709  0.3870346263091374
  0.3787265119914100  0.6802212718904628  0.4178498242288868
  0.5444042785708881  0.7116290982140618  0.3299244969003037
  0.5957034446278211  0.5831425525099100  0.4169618624938155
  0.4295017680814033  0.5020000632088800  0.3413585515978501
  0.5682435702406874  0.5177061209781663  0.3450380898246901
  0.3572918257092326  0.5721201324362714  0.3686982664356922
  0.6073846909907226  0.6016893474534816  0.3768046881315517
  0.3983340452853527  0.6711800024591515  0.3792133068165584
  0.5290885334392491  0.6893246979936931  0.3671546744908175
  0.9002173487521079  0.6470490574356430  0.4134802057915873
  0.3095224269551969  0.1024185885517753  0.4572308183525547
  0.4864178442870646  0.5545599420149546  0.7588271713748985
  0.7611062728615073  0.3683679304776257  0.8865376236832208
  0.3659170256667201  0.7942916518654938  0.8790191847111124
  0.1355306895952942  0.4914984570590122  0.9171705276273913
  0.0665371661617283  0.7296677232516164  0.8097349301419821
  0.3302039523228044  0.2871073498298448  0.3842537757991888
  0.6599971781333251  0.1781361460290111  0.7342102652803525
  0.3307141889918608  -0.0986108648971432  0.7994913302337517
  0.9301908857483384  0.2255662405516631  0.8594957685608290
  0.3335379756827623  0.3413972333671770  0.7012121090211711
  0.5343956854294875  0.3503364780520297  0.4334877575483707
  0.4596251889053816  0.9306774458011590  0.3688835642252084
  0.5031626705233716  0.7256448432118262  0.6041193684745272
  1.2043503383830774  0.0664702894779684  0.3758414976681915
  0.5161988256269888  0.4538013383790557  0.5085150315229748
  0.0411035232283762  0.1866936564769140  0.7014467216550895
  0.9787110863234264  0.3109863181071191  0.7680927660909633
  0.7796349391528514  -0.1938884718089251  0.3767985588194213
  0.5517644522742452  0.2984790184050520  0.8474808073810978
  0.3229399163566004  0.3200758230394729  0.8968494594065309
  0.6193585596563062  0.7768484022357102  0.8762405512303112
  0.9388666706666100  0.7527062459037399  0.5000462529107176
  0.0973494375715107  0.3982566617585145  0.3753305111862712
  0.1694230439734448  0.4714580281364724  0.4783379156610842
  0.7207756690461491  -0.0282351009458683  0.6957946757084987
  0.9133989363703335  0.5411532322154169  0.8780246710850214
  0.5705184704819074  0.3957402314396917  0.6062974298613962
  0.3972031009581709  0.6949743301947839  0.5076594913033954
  0.2423294132794030  0.4928831447945393  0.6429777944523501
  0.3423259104475682  -0.1968097393101049  0.6664993349857349
  0.7796642674307822  -0.0384542820205381  0.5488075748523573
  0.5088084900015337  0.1502466694595848  0.3793435455236556
  0.7830304236818434  0.4246084355642407  0.7499390172282203
  0.7845398119883655  0.3526656736141365  0.6443554999800810
  -0.0630129571864069  0.1491668441623520  0.5139499739114475
  0.5787237926095733  0.5572423685579503  0.6546402954891050
  0.5426399829763708  0.3773531879658244  0.7513212083696784
  0.6939095015699046  -0.0580746872281112  0.4384779764191775
  -0.0320104078064404  -0.0465973405525457  0.4836017970082233
  0.7893581832895985  0.0636174851623118  0.3701168507641995
  0.3154258401744175  0.6124853653610269  0.8732088016450248
  0.6550021997090099  0.0008162728053734  0.8870684012004522
  0.0061056530398339  0.8626970785096408  0.8805048546964725
  0.8550174933915929  -0.1256618692205921  0.6280380163347214
  0.2756120788756029  0.1724122010590016  0.6732649386573122
  0.1814487595270714  0.4078024579102820  0.7852699987190087
  0.0996060901130050  -0.1230956651099472  0.6588759299811509
  0.5153196697610043  0.5001538161455681  0.8956275170406079
  0.1369818795610184  0.1791920443430618  0.9063086472054879
  0.8953465677570602  0.1788269493795035  0.6158126945250089
  0.9487220800749452  0.0181871049725422  0.7458260593192747
  0.7848917708216653  0.2766015951778948  0.4788853928468841
  0.4157729831876706  0.1167394552943575  0.7561581595183567
  0.6527554845372049  0.1002598696227249  0.6222451402657965
  0.1404784975562026  0.0338416907055627  0.6086512701621367
  0.9210181592276098  0.4499048554782338  0.5052119097540760
  0.3141235195570300  0.5224323453155879  0.5460396880203315
  0.2277082120163150  0.5742572881325970  0.7814072221807860
  0.2062849224091054  0.9877957522516292  0.8777567171068308
  0.1957715788444128  0.6477057159190422  0.6909482265526502
  0.8460809048841580  0.6082767296347811  0.7774993432819164
  0.5292060150331959  0.1870271814243862  0.4929316231059471
  0.1121915507456113  0.7010854157468140  0.3775293738337029
  0.4502961137014405  0.2148223737673033  0.5969471518448116
  0.1989575360005850  0.8066045343634802  0.4970011841706541
  0.9807014499400256  -0.0965831604763997  0.3835200283387655
  0.5244869727291237  -0.1407465624167178  0.7389119394518809
  0.1103104371963627  -0.1244914098878831  0.7537644012063464
  0.4531129071862117  0.1064262912770479  0.8671304250767805
  0.9800943139354192  0.4566789700822558  0.6054579449924935
  0.8175255252554015  0.6004697410204849  0.6301071404317922
  0.7455789961132773  0.5882954782549662  0.4957098737853281
  0.8585631277752672  0.4628131763430743  0.3854157443068402
  0.8003733495216461  0.0791840379224279  0.8156523497649387
  0.9883802786616069  0.1587827577691404  0.3709678350135861
  0.1776565483323045  -0.0046900959713685  0.5171611445341646
  -0.0369472925797785  0.7047400046698631  0.7013436362185098
  0.6248836952249660  0.6780022275546809  0.7965454814670071
  0.2531332099347711  0.5572820027606866  0.3878316157310019
  0.7377809931906785  0.7325127259817994  0.5596031100041745
  0.7218297405454134  0.2459185099179790  0.3811127181989329
  0.1452887496343013  0.2695846772372190  0.4477065884249749
  0.2099955240638939  0.8871159572749330  0.3781273187351831
