1-pos-1
1.000
11.0985002518  0.0000000000000000  0.0000000000000000
0.0000000000000000  14.4173002243  0.0000000000000000
0.0000000000000000  0.0000000000000000  26.7964000702
Pt  H  C  O  K  
96  168  6  81  4  
Direct
  0.0000000000000000  0.0000000000000000  0.0018699899937576
  0.1249999521128992  0.1666699702868031  0.0018699899937576
  0.2499999943280624  0.0000000000000000  0.0018699899937576
  0.3749999464409617  0.1666699702868031  0.0018699899937576
  0.4999999886561249  0.0000000000000000  0.0018699899937576
  0.6249999407690242  0.1666699702868031  0.0018699899937576
  0.7499999829841874  0.0000000000000000  0.0018699899937576
  0.8749999350970866  0.1666699702868031  0.0018699899937576
  0.0000000000000000  0.3333300219343480  0.0018699899937576
  0.1249999521128992  0.4999999922211510  0.0018699899937576
  0.2499999943280624  0.3333300219343480  0.0018699899937576
  0.3749999464409617  0.4999999922211510  0.0018699899937576
  0.4999999886561249  0.3333300219343480  0.0018699899937576
  0.6249999407690242  0.4999999922211510  0.0018699899937576
  0.7499999829841874  0.3333300219343480  0.0018699899937576
  0.8749999350970866  0.4999999922211510  0.0018699899937576
  0.0000000000000000  0.6666700318690679  0.0018699899937576
  0.1249999521128992  0.8333299447943854  0.0018699899937576
  0.2499999943280624  0.6666700318690679  0.0018699899937576
  0.3749999464409617  0.8333299447943854  0.0018699899937576
  0.4999999886561249  0.6666700318690679  0.0018699899937576
  0.6249999407690242  0.8333299447943854  0.0018699899937576
  0.7499999829841874  0.6666700318690679  0.0018699899937576
  0.8749999350970866  0.8333299447943854  0.0018699899937576
  0.0000000000000000  0.2222199683821562  0.0864100026098289
  0.1249999521128992  0.0555599860957249  0.0864100026098289
  0.2499999943280624  0.2222199683821562  0.0864100026098289
  0.3749999464409617  0.0555599860957249  0.0864100026098289
  0.4999999886561249  0.2222199683821562  0.0864100026098289
  0.6249999407690242  0.0555599860957249  0.0864100026098289
  0.7499999829841874  0.2222199683821562  0.0864100026098289
  0.8749999350970866  0.0555599860957249  0.0864100026098289
  0.0000000000000000  0.5555599783168760  0.0864100026098289
  0.1249999521128992  0.3888900080300730  0.0864100026098289
  0.2499999943280624  0.5555599783168760  0.0864100026098289
  0.3749999464409617  0.3888900080300730  0.0864100026098289
  0.4999999886561249  0.5555599783168760  0.0864100026098289
  0.6249999407690242  0.3888900080300730  0.0864100026098289
  0.7499999829841874  0.5555599783168760  0.0864100026098289
  0.8749999350970866  0.3888900080300730  0.0864100026098289
  0.0000000000000000  0.8888900002512240  0.0864100026098289
  0.1249999521128992  0.7222199606033073  0.0864100026098289
  0.2499999943280624  0.8888900002512240  0.0864100026098289
  0.3749999464409617  0.7222199606033073  0.0864100026098289
  0.4999999886561249  0.8888900002512240  0.0864100026098289
  0.6249999407690242  0.7222199606033073  0.0864100026098289
  0.7499999829841874  0.8888900002512240  0.0864100026098289
  0.8749999350970866  0.7222199606033073  0.0864100026098289
  0.2430111414434198  0.4512666020184710  0.1698267889260557
  0.4835226310356355  0.4518227997791643  0.1695166870810978
  0.1199343806100394  0.6210546102389110  0.1738059769222291
  0.8715736533709738  0.2862185188905819  0.1705110442048232
  -0.0036773439360314  0.4460687781517186  0.1732559826483195
  -0.0065658602555946  0.1227109487196586  0.1711203225428548
  0.1201111317886216  0.9535861275627636  0.1717762637421932
  0.3816030223104346  0.9420314065672737  0.1737970567314806
  0.8731789094412352  0.6160473179735864  0.1690489912687063
  0.4971015986781833  0.1159583362134758  0.1697045661651095
  0.2459840482642894  0.1126147163713399  0.1714323055696083
  0.2500132407214187  0.7869195035474017  0.1717728452867380
  0.7432993098920784  0.1216278712532075  0.1715252216812307
  0.6186523913973354  0.2827954546668919  0.1742847915266680
  0.3670765711015110  0.6203507767858976  0.1734238978976893
  -0.0090194445581749  0.7846386436923386  0.1690459958588829
  0.7500904808151746  0.7813671689039795  0.1735467748696473
  0.6314270017035347  0.9532531401500504  0.1705127132984284
  0.8765525981154260  0.9522582794981355  0.1694677748952606
  0.7355723644350928  0.4488805167414218  0.1697942543916512
  0.3699793298048569  0.2833103871150271  0.1731650051329215
  0.1278186133545320  0.2852406945766900  0.1706694873758789
  0.5044775243746956  0.7836350755988052  0.1703240851249888
  0.6230641346859891  0.6144936268766745  0.1708848519504069
  0.3609554512692181  0.5210988029116088  0.2654428284085143
  0.1076411451453764  0.5183985807830314  0.2575261104484806
  -0.0030436293132959  0.0160520001386901  0.2580435324851601
  0.8755226208715955  0.1801755600692655  0.2585625570094829
  0.7451890876480053  0.3452523506800786  0.2579182831273655
  -0.0159662884876054  0.6859858379123259  0.2600644776180186
  0.6157364477143363  0.8466448658901151  0.2583959464204372
  0.2351587994041550  0.6846565246219155  0.2642950116525537
  0.7405585607178765  0.6772975388375190  0.2578012381253584
  0.9942915043598143  0.3447892628761119  0.2593027301987188
  0.1114904838605844  0.8508970740668353  0.2584725773482716
  0.6298216934820829  0.1738384551828730  0.2575969817369755
  0.2484673545916944  0.0127462078642343  0.2582241012887055
  0.3688651763949857  0.1778475730760121  0.2553687778796074
  0.8622812691154279  0.5151851362560239  0.2565569321360221
  0.5012511588849806  0.0100019125464942  0.2591683261634541
  0.3727687826135802  0.8476645178895389  0.2614261873403846
  0.5005922918007714  0.3445330638553151  0.2588762142835190
  0.1203634406354449  0.1819403682791352  0.2608195120087202
  0.7476746263581140  0.0117345608794946  0.2549066890218668
  0.8646417841945486  0.8545207242986552  0.2578808661050276
  0.2405586286549837  0.3435743787627549  0.2591708213829547
  0.6101727117230716  0.5179319717580864  0.2647107673425275
  0.4880021028446249  0.6800175155384206  0.2525850408177416
  0.9088975356975808  0.6112100375802396  0.3966548300165257
  1.0303300367764017  0.6851633421665543  0.3933233870590340
  0.3234738928638351  0.0997812868858287  0.4277752785213750
  0.3278863335890634  0.0534577994568619  0.4839045243215470
  0.6194928594505291  0.6290012467601437  0.7666411966563340
  0.4784284400893561  0.6183888394009547  0.7567393092832209
  0.6897798346275115  0.3857771900127053  0.8749433194936251
  0.7524923617626186  0.3960285606924177  0.9267845378573139
  0.2205703761914114  -0.0860208258623687  0.8773409067416021
  0.2728204896611074  0.8439602339897012  0.9177623160190580
  0.1987815128032450  0.5740098568004821  0.9047445758193986
  0.0662867138270041  0.5396571299518569  0.8993684927178401
  0.0823401481882012  0.7684742259806782  0.8279108792853016
  0.2040070841132600  0.8064140180839225  0.8361682954576355
  0.4394959630792374  0.2277398352963423  0.3724662957842421
  0.3772170464312066  0.3057717707348388  0.3438091495187636
  0.6435067044974556  0.2567925965056856  0.7478869485228737
  0.7091670217715677  0.1826781051948216  0.7693106090218983
  0.3410330100669359  0.0824181643312968  0.8255492386606574
  0.3874205727663648  -0.0058279427002832  0.7983290090257386
  0.8774247877428875  0.2781173506702557  0.8990906168882327
  0.9636394241974674  0.2892157513146641  0.8535837349971795
  0.4278560907929753  0.4156710322296815  0.6600697271298795
  0.3205592879653260  0.4734650519515990  0.6667550448677357
  0.5588258156856926  0.3039091760061296  0.4647311497244358
  0.5010619999128340  0.3570021455559931  0.4213391755393258
  0.5276602684628683  0.9281315985878134  0.3560556097761228
  0.5767059152214669  0.9109388587097732  0.4093213091783092
  0.5638711181796866  0.6897082556025358  0.6139734423205754
  0.4768229633316194  0.7745993098331432  0.6205811823877536
  1.2657536599885775  0.1040143197734380  0.3431688808612181
  1.1500040091660124  0.1223122183741317  0.3757222656298718
  0.6287408818293504  0.5178796235036797  0.5237690742238290
  0.5195931382318735  0.4581270904844939  0.5026565237574268
  1.0227259572174261  0.1553560306960140  0.7237017645913680
  0.1431576997569844  0.2054221237488169  0.7043682842491285
  0.9637986533419379  0.3667136075788211  0.7758934886004193
  1.0460590215076215  0.2797930012167625  0.7639433510684709
  0.8626091316750030  -0.2276318534636982  0.3818917403304623
  0.7927047550296835  -0.1678288270519441  0.3376760053065018
  0.4939235479055774  0.2575856654799120  0.8781030099586947
  0.4291298843668149  0.3462417848860721  0.8829752789260921
  0.2207688057134221  0.3822749305525815  0.9034126329126462
  0.2790518823025396  0.3867222901554515  0.8485037607415562
  0.4576913669552924  0.8683196346428185  0.8630948062915446
  0.4888625034918612  0.8395788908868134  0.9149354148419763
  0.0830973605150322  0.7626082366425734  0.5009346619260194
  0.9741552719924045  0.7261888113249949  0.4695133381625951
  0.1783555026796490  0.4759170967970283  0.3757855148945327
  0.1105847345276176  0.4097552119392609  0.3393286801390906
  0.1824202078088563  0.4824272107600991  0.4552297693773368
  0.2562622977495295  0.4814680066383252  0.5090887455912723
  0.8146054569160107  0.0251904886178253  0.7093740834329215
  0.7095615647368921  0.0262525781048842  0.6744541370651774
  0.8619381479897259  0.5950049439035319  0.9173479355921756
  0.8403925653186602  0.5057908525834318  0.8890427048853279
  0.6400293562319780  0.4171567719012392  0.6287524548954926
  0.5427650533974645  0.4400979610042121  0.5902971886843433
  0.4870164043671910  0.7655180361852986  0.5407737948469824
  0.5372522445843929  0.8113642532035122  0.4911813670873352
  0.2143731851350031  0.6083779674447242  0.6574846701327259
  0.1458232983629944  0.5175684873318436  0.6327958220760151
  0.2929070076988796  -0.2348716593202810  0.6699819939905086
  0.3975173803942085  -0.1616717039970755  0.6836840895271520
  0.8536012722136503  -0.0743838411294559  0.5651749918207191
  0.8656786362861755  -0.0276047214324638  0.5135587585589174
  0.5190162451963516  0.1028785304963028  0.3411405561848581
  0.5114521505443391  0.0774120534105884  0.3969689298462771
  0.8111968016885746  0.5066691199083126  0.7645117817069186
  0.7245401696320030  0.4203196304316555  0.7750804719100084
  0.8037333919196226  0.4049438142350580  0.7027178470417371
  0.8256688831911136  0.3321388919840224  0.6602906207194846
  0.0337236674062604  0.1942346462467431  0.5542810263128433
  0.0107188851287097  0.1358716355575588  0.5071282639981339
  0.5746345965046635  0.6149664547150315  0.6903132193406580
  0.5633668670130398  0.5273026616721587  0.6588962995605933
  0.5261111208474316  0.3755784515864797  0.7634991652125792
  0.5530599367787996  0.3466896108728764  0.8212172325592448
  0.7084937476416879  -0.0967910834060303  0.4829866956827907
  0.7219416052182820  -0.1481102430745613  0.4323008096405668
  0.0946509469898537  -0.0185561277241828  0.4835923592964658
  0.0063703820242319  -0.0063481785199797  0.4382065106409033
  0.8826153444030685  0.0281258614020218  0.3658930242351327
  0.7850777558965103  0.0768679408806448  0.3375958874326689
  0.3902845937582862  0.6076658116152510  0.8867350594800495
  0.3290743822533739  0.6926919968391574  0.8994714653332949
  0.6094988807251595  -0.0227329215942656  0.8852578067634048
  0.6840896566965107  0.0480691359490399  0.9223152617759649
  -0.0463704988443401  0.8348326127185426  0.8746855494841499
  0.0003051469769035  0.7635885329449406  0.9158395813470489
  0.9781945850151464  0.9049973327675153  0.6333484282044954
  0.8380037113295188  -0.0801622960207249  0.6557003948728125
  0.3661721086811608  0.1718649176371927  0.6783837399269105
  0.3112835813595345  0.2721165570643780  0.6676673810224414
  0.1491850272050466  0.3927227620575479  0.7811789864332983
  0.2678105542970043  0.4060957211414571  0.7435478547791099
  0.1403694186020616  -0.0637234142458600  0.6942295113584320
  0.2095830464681704  -0.1122101617869685  0.6507737952044185
  0.6030567542686226  0.6242050355885506  0.8834436043342485
  0.5539898155881754  0.5600329770195946  0.9250206205596107
  0.1982251838795241  0.2180765820219752  0.9037074407293418
  0.0594051658910465  0.1995695513124198  0.9044294248148652
  0.8249755017859323  0.2049623248685226  0.6134442629919024
  0.9422983096751169  0.2239896562712242  0.6482109288708779
  0.8814303842371337  0.0976166627596417  0.7765823353541490
  -0.0166814478893194  0.0281432034907701  0.7559760224071324
  0.7404100979379860  0.2441850930569027  0.4978224318547590
  -0.1141115428181028  0.2561217579333086  0.4945273052120502
  0.5294564143427377  0.1424047756763478  0.7209664662524874
  0.3971098806962862  0.0969027327977303  0.7306614753701081
  0.7562956134040424  0.0607492796552709  0.5719822300475753
  0.6483849069006334  0.1289796898635567  0.5863913307211166
  0.2443085285924325  0.1097251563530375  0.5985381289793638
  0.1864327598554968  0.0166548842407600  0.6137311172514246
  0.9079585195635486  0.3993084429980036  0.5103609916881618
  0.0359730024095146  0.4476599142620242  0.5003125443036400
  0.4058092293658815  0.5384479927951915  0.5419400114924322
  0.2810827529236710  0.5565033176167733  0.5756822204209188
  0.3058192226151930  0.6335804640042104  0.8099704153259422
  0.2847858153345886  0.5334867076386655  0.7848246779084246
  1.0780243525659745  1.0015800871831471  0.9228426176582096
  0.1297819465081683  1.0635024762095810  0.8820053737324127
  0.1298195184314498  0.7005361065296380  0.7089403551757844
  0.2466732757748947  0.6472158744514909  0.7336932396364710
  0.8215906336282811  0.6444781353473642  0.8129308246903411
  0.8674743660737895  0.6544736276349639  0.7574417711120742
  0.5152356842063029  0.1373173195535728  0.4710376318622337
  0.5300955180629768  0.2047888764862946  0.5196027818521848
  0.1366742923264777  0.7247415876440430  0.3405455018059779
  0.2053414129472480  0.6703808590536073  0.3816803549882088
  0.5518807130726167  0.2785361992622981  0.6089847220167363
  0.4423568475843173  0.2077890276954021  0.6121436511183411
  0.3419812502941047  0.7627378948428548  0.5013192466341519
  0.2585852665484732  0.6776448672153772  0.5119756467159510
  0.9452781988267739  -0.1013842212799567  0.3731194419924697
  1.0176583884537205  -0.0257567547059963  0.3409305037828469
  0.5442281808409555  0.7707633894638921  0.7280103370562342
  0.5892157595022275  -0.1328245424183068  0.7194662165288424
  0.1852761609990055  -0.0010728851975995  0.7739083361448416
  0.1258709759972688  0.8940478074233786  0.7713834166734668
  0.3940773301411297  0.1299372445017497  0.9188154984624484
  0.5035281054657497  0.0994061188504926  0.8870990299602054
  0.9481100621945205  0.4364667402010439  0.6470178890813446
  1.0138881471552879  0.4122299878435500  0.5981050401887203
  0.7583924414593668  0.5832265313881441  0.6401602038132269
  0.8869734616353635  0.5487208224509388  0.6136869657386506
  0.7472733185148063  0.5448857170817097  0.4581601530480646
  0.8559481549643875  0.5324149759025144  0.4948878954060572
  0.9537812228353280  0.4402594395864557  0.3906179925952223
  0.8552883652780455  0.4706572107490021  0.3542271822682618
  0.7230568325930791  0.1082879730609065  0.8418530664530278
  0.8307543073492872  0.1849621346793778  0.8425795550503394
  1.0408336259150417  0.2414153694277384  0.3492890255623856
  0.9469155809673970  0.1692171014922770  0.3794163334987152
  0.2520019073339568  -0.1370839246774414  0.5135880222211238
  0.2387240886506531  -0.0413416133205993  0.5412526569316798
  -0.0842826663492927  0.7704067423024954  0.6888966393821355
  0.9177815642026040  0.6677468963137599  0.6720910734658091
  0.7928188625911798  0.7330517041524074  0.8811741685503117
  0.6691753673831277  0.7753106836438038  0.8643691480542642
  0.3820545343874098  0.4443625673066022  0.3476413294582697
  0.5991165683869395  0.4383739861466929  0.3460830312991660
  0.7246901710972666  0.5773007729749284  0.3687815455737165
  0.3915430812911160  0.7195752682887411  0.3555361581086027
  0.6058755131811097  0.7202116068512507  0.4071790346209204
  0.3986282887169795  0.7040974908804654  0.4195537380635954
  0.5853022400072889  0.7120877658492722  0.3403741088021427
  0.6206808802642297  0.5388751359498871  0.4126706696619888
  0.4268255483016017  0.5092173856327149  0.3421538252668568
  0.5611294095875672  0.5089199477744970  0.3418269385142687
  0.3688106220059905  0.5818554285885588  0.3744529088837831
  0.6240265234284021  0.5783077282907048  0.3746795493236963
  0.4281767795454418  0.6715649450221597  0.3857738017054037
  0.5649044929816684  0.6769609470675966  0.3752655665520875
  0.9336015270459193  0.6769689214454767  0.3985025886919555
  0.3603527761376016  0.1005905895928871  0.4609377523862224
  0.5555220745884165  0.6478469431993460  0.7433389827408757
  0.7678231139579348  0.3828018831776780  0.8887350188014360
  0.2791783701493793  0.8587648667211641  0.8801285628075031
  0.1481366067485879  0.5177969850012233  0.9084888427558957
  0.1497924933893995  0.7858898318911940  0.8067500723815939
  0.4000190059715469  0.2879618059005616  0.3778990545398443
  0.6789833292185428  0.1979868050253210  0.7353394342777079
  0.3265182122703711  0.0448176523168277  0.7961853647619750
  0.9385778005015190  0.2401746739076540  0.8783201516898510
  0.3689079299012464  0.4270957572640107  0.6861778715659682
  0.5430032527523342  0.3689177222192612  0.4528222823144853
  0.5078380452877758  0.9420481157358594  0.3909440490534448
  0.5497324907039112  0.7530887980538785  0.6020438628710021
  1.2324766677985650  0.0962326127440662  0.3762878136087159
  0.5432959531916997  0.5045467110020720  0.5264705018264308
  0.0603549980269957  0.2167371595642634  0.7145279964002678
  1.0398862925851811  0.3354366972984920  0.7891393928289775
  0.8190712057897795  -0.1685062520030829  0.3752915765421673
  0.5118680611534551  0.3249797029615152  0.8772934176125897
  0.2700253098984211  0.3484830703554235  0.8787038640121430
  0.5283241011819607  0.8623211589535742  0.8840156884597221
  0.9966699652330047  0.7473847181415111  0.5030301050173638
  0.1184155291330333  0.4209886592685346  0.3747157800635515
  0.2023627161188510  0.4434275630970568  0.4829425082584763
  0.7435111838702422  -0.0137789909490246  0.6986701417859621
  0.8938636414222764  0.5643040610257537  0.8882892837971553
  0.5517356679076414  0.4084690705180851  0.6227957395687383
  0.4626679904131369  0.7962590657126571  0.5097017318116963
  0.2262998097416505  0.5491336282195229  0.6368100544511924
  0.3438535920095207  -0.1837225755925885  0.6572127969564442
  0.8052663097386081  -0.0456646141966545  0.5384818317646615
  0.5173934630553971  0.1327206497562483  0.3760674718618943
  0.8056382816362824  0.4356892986949630  0.7654766776493684
  0.8018420938501745  0.3962169242943230  0.6661236654527518
  0.0234850174966412  0.2018221264682913  0.5184542192087188
  0.6016898349321529  0.5906833801897525  0.6571474422373248
  0.5884917763317358  0.3546135669341816  0.7873224554690168
  0.6649926342798445  -0.1437781345848782  0.4614936684406541
  0.0177815074850310  0.0015793713695177  0.4739574728630781
  0.8229986175941747  0.0814860386565225  0.3697949402397485
  0.3092758361692431  0.6364312420667165  0.8827822074281877
  0.6470607450979956  0.0385870650638414  0.8870331923739857
  -0.0414138667452348  0.7689706617064138  0.8841126053177029
  0.8897050244782875  -0.1162877274605275  0.6296785300971984
  0.3124400326825787  0.2091068152426142  0.6552338992402927
  0.2377594422068002  0.4183145055712274  0.7781708176125304
  0.1428580252672297  -0.0670079448072883  0.6583017363932178
  0.5328739194686081  0.5838682978392863  0.8922927354592799
  0.1348972550644565  0.1768049081202901  0.9182738492012799
  0.8912194576015623  0.2482751367531984  0.6228912935458879
  0.9297992961009629  0.0794782705203488  0.7473050643795132
  0.8082487267903744  0.2827874122249508  0.4820743638906114
  0.4580476186298698  0.1132002210337019  0.7068300578354005
  0.7301055331044219  0.1154911346504088  0.5946340446797589
  0.1948948879150756  0.0594462105363844  0.5863629699152617
  0.9609352411529941  0.4504453725708075  0.5208327281887695
  0.3154999131465623  0.5574062003408259  0.5402995343094957
  0.3233411688140463  0.5984117254462521  0.7801414416800044
  0.1154384775269263  0.9984813505955090  0.8882833573294363
  0.2119662891045536  0.6791889158551134  0.7014030519085215
  0.8055775508542211  0.6237111291296978  0.7791276752849352
  0.5668602407951157  0.1879381058274076  0.4869993816263619
  0.1536499417588813  0.7271893360886873  0.3759411286967254
  0.5179905920142334  0.2217642475469248  0.5939245583140458
  0.2545215618607443  0.7410115163443306  0.4980080305690255
  1.0083682947058488  -0.0515174358891498  0.3754147696871924
  0.5176332637887953  -0.1652057634539301  0.7291849488778797
  0.1236457084890760  -0.0413901610437590  0.7563942250414655
  0.4277986450403478  0.1346032535848245  0.8841176642547111
  1.0265758905715359  0.4548589198098912  0.6270611537027476
  0.8318589011972725  0.6049359265474723  0.6220000302367331
  0.7820792589334092  0.5686617697453175  0.4881813020230207
  0.8652228836812972  0.4513131108994382  0.3898540335542180
  0.7824062664675497  0.1458241015926459  0.8206482954161936
  1.0231184442473105  0.2095324492936869  0.3826452263228756
  0.2474593305482489  -0.0691447242057000  0.5073238518639021
  -0.0539754678027641  0.7095350615754189  0.6987176082701416
  0.7051131538994014  0.7236775792193489  0.8783329770880053
  0.2608059247041554  0.5688595304602669  0.3887725103673692
  0.7981836956090774  0.7557543227431146  0.5556072904008138
  0.7627002805651276  0.2776797737590552  0.3881443400737512
  0.2215007062419356  0.2652857065883637  0.4516434968762456
  0.2538217268088200  0.9018228095774621  0.3902245113674314
