1-pos-1
1.000
11.0985002518  0.0000000000000000  0.0000000000000000
0.0000000000000000  14.4173002243  0.0000000000000000
0.0000000000000000  0.0000000000000000  26.7964000702
Pt  H  C  O  K  
96  168  6  81  4  
Direct
  0.0000000000000000  0.0000000000000000  0.0018699899937576
  0.1249999521128992  0.1666699702868031  0.0018699899937576
  0.2499999943280624  0.0000000000000000  0.0018699899937576
  0.3749999464409617  0.1666699702868031  0.0018699899937576
  0.4999999886561249  0.0000000000000000  0.0018699899937576
  0.6249999407690242  0.1666699702868031  0.0018699899937576
  0.7499999829841874  0.0000000000000000  0.0018699899937576
  0.8749999350970866  0.1666699702868031  0.0018699899937576
  0.0000000000000000  0.3333300219343480  0.0018699899937576
  0.1249999521128992  0.4999999922211510  0.0018699899937576
  0.2499999943280624  0.3333300219343480  0.0018699899937576
  0.3749999464409617  0.4999999922211510  0.0018699899937576
  0.4999999886561249  0.3333300219343480  0.0018699899937576
  0.6249999407690242  0.4999999922211510  0.0018699899937576
  0.7499999829841874  0.3333300219343480  0.0018699899937576
  0.8749999350970866  0.4999999922211510  0.0018699899937576
  0.0000000000000000  0.6666700318690679  0.0018699899937576
  0.1249999521128992  0.8333299447943854  0.0018699899937576
  0.2499999943280624  0.6666700318690679  0.0018699899937576
  0.3749999464409617  0.8333299447943854  0.0018699899937576
  0.4999999886561249  0.6666700318690679  0.0018699899937576
  0.6249999407690242  0.8333299447943854  0.0018699899937576
  0.7499999829841874  0.6666700318690679  0.0018699899937576
  0.8749999350970866  0.8333299447943854  0.0018699899937576
  0.0000000000000000  0.2222199683821562  0.0864100026098289
  0.1249999521128992  0.0555599860957249  0.0864100026098289
  0.2499999943280624  0.2222199683821562  0.0864100026098289
  0.3749999464409617  0.0555599860957249  0.0864100026098289
  0.4999999886561249  0.2222199683821562  0.0864100026098289
  0.6249999407690242  0.0555599860957249  0.0864100026098289
  0.7499999829841874  0.2222199683821562  0.0864100026098289
  0.8749999350970866  0.0555599860957249  0.0864100026098289
  0.0000000000000000  0.5555599783168760  0.0864100026098289
  0.1249999521128992  0.3888900080300730  0.0864100026098289
  0.2499999943280624  0.5555599783168760  0.0864100026098289
  0.3749999464409617  0.3888900080300730  0.0864100026098289
  0.4999999886561249  0.5555599783168760  0.0864100026098289
  0.6249999407690242  0.3888900080300730  0.0864100026098289
  0.7499999829841874  0.5555599783168760  0.0864100026098289
  0.8749999350970866  0.3888900080300730  0.0864100026098289
  0.0000000000000000  0.8888900002512240  0.0864100026098289
  0.1249999521128992  0.7222199606033073  0.0864100026098289
  0.2499999943280624  0.8888900002512240  0.0864100026098289
  0.3749999464409617  0.7222199606033073  0.0864100026098289
  0.4999999886561249  0.8888900002512240  0.0864100026098289
  0.6249999407690242  0.7222199606033073  0.0864100026098289
  0.7499999829841874  0.8888900002512240  0.0864100026098289
  0.8749999350970866  0.7222199606033073  0.0864100026098289
  0.2489538775972801  0.4574337972919755  0.1720356432141294
  0.4966536947914222  0.4603820737195107  0.1712684556349716
  0.1138354540105629  0.6260636822757323  0.1716269149046808
  0.8764870363833458  0.2821411816023620  0.1722318067467767
  0.0056536194059034  0.4518863692953526  0.1705697142013855
  0.0107454697746804  0.1171451299636095  0.1729884813615340
  0.1182221119549193  0.9532595715622119  0.1763817881587824
  0.3786087402861935  0.9575636921281006  0.1695712546609283
  0.8703385238859990  0.6141331135822896  0.1700266626063250
  0.5064009470548489  0.1212753376636362  0.1705148334451590
  0.2619970624795368  0.1111769495580317  0.1706465517875764
  0.2338068425037110  0.7908090631617243  0.1701100772737484
  0.7486069980268286  0.1169559318920175  0.1701899359149985
  0.6265151346167039  0.2898563496067378  0.1738621195494499
  0.3629108610730319  0.6186927882562760  0.1729590040400307
  -0.0079893961065252  0.7850078392641300  0.1747135236574730
  0.7446737293950673  0.7838932372963555  0.1737633431581038
  0.6255616125407565  0.9498175593735249  0.1703370082452248
  0.8725993370256778  0.9487174820044438  0.1754744677599115
  0.7513379643116727  0.4526641550267685  0.1713306537323143
  0.3760800458082664  0.2859418039760047  0.1722965851496761
  0.1297043065946259  0.2821443539230662  0.1700690520316592
  0.4925606871805396  0.7867033694133044  0.1698311314981809
  0.6206730332490453  0.6232139438045343  0.1727086436788469
  0.3544315049559983  0.5229482599170930  0.2626957656722081
  0.1092816948401018  0.5217799960647796  0.2586290360288785
  -0.0012914203518332  0.0194219991568217  0.2640171829412157
  0.8692388237712901  0.1830055552462565  0.2543061172675326
  0.7494852867306036  0.3542913608950669  0.2559144625373111
  -0.0006085606925949  0.6920077723833629  0.2643385730562102
  0.6144956768094777  0.8537543498507278  0.2594622673450818
  0.2377252065180694  0.6911315143459039  0.2588474765352401
  0.7467874030507664  0.6883943546637127  0.2587377032637449
  1.0031064903201139  0.3497201665677878  0.2564337514926763
  0.1207537081852697  0.8577349102682236  0.2648405869448206
  0.6151383032939743  0.1847942169373362  0.2578227661402592
  0.2584239867035041  0.0253700336546719  0.2563258454234870
  0.3792095092683737  0.1876849942501201  0.2581623276998778
  0.8698968085921506  0.5218194351269586  0.2545812593157437
  0.4988013190612990  0.0159674719620523  0.2577972485633381
  0.3703873588896213  0.8564573704713513  0.2602442000018979
  0.4924917664811076  0.3559971086229633  0.2572805237434471
  0.1374719088331372  0.1813608157644475  0.2596718803223953
  0.7495524973881769  0.0135373845701737  0.2552064705327770
  0.8745918915869496  0.8498862345564369  0.2606227190743639
  0.2439901433674174  0.3520176811776431  0.2555996489736272
  0.6136807853471350  0.5163061102628467  0.2619600245260709
  0.4923844308616119  0.6780682296067430  0.2533079260093812
  0.8766585696497159  0.5664126072880256  0.3980619455395520
  0.9812381587083148  0.6480023902362484  0.4102421154856997
  0.2818046368916153  0.0923570879626772  0.4282542118619126
  0.3012241355184720  0.0775120654848026  0.4844851903273999
  0.5436152546215866  0.6285715923447103  0.7753377154196568
  0.4100549659997440  0.5733623657824156  0.7691292307178251
  0.6783378050091941  0.3873677074634934  0.8883861930421731
  0.7897450946562314  0.4000745768599718  0.9170831144489844
  0.2686792192860812  -0.1386425755378934  0.8632300825633759
  0.2618129571271340  0.8456908258558502  0.9222524367175396
  0.1981368907608353  0.5582589277730590  0.9074658174268148
  0.0597675796504504  0.5257192911350366  0.9105161865915483
  -0.1050156888820155  0.8014056054770812  0.8500858327844029
  0.0377923137256292  0.8144892787005926  0.8561388874475321
  0.3959099398666375  0.2398589948949961  0.3783630671261405
  0.3314650922770725  0.3023873317871253  0.3391985692737928
  0.7615354623999072  0.2047638494844020  0.6951991592265013
  0.7413168938447903  0.1336198221393100  0.7375646522675793
  0.2255240248964320  -0.0168438321337510  0.8329851135870656
  0.3619337099396397  -0.0149413173929004  0.8053509286458018
  0.8383134413761026  0.2598970381142859  0.8990848325552777
  0.8935422361766062  0.2783691269212547  0.8471902817067681
  0.4394034438039566  0.3555590571083423  0.7267900739121426
  0.3340435981788369  0.3879667715646518  0.6904646170093514
  0.5448944078925609  0.3185125104463141  0.4544860366054799
  0.4808835560493328  0.3781309129438408  0.4188423216737050
  0.5336575387327144  0.9319503570407451  0.3552538820274804
  0.5553476092321910  0.9310635207745175  0.4102205453606648
  0.5154570255537163  0.6379870722256942  0.5953618047948829
  0.4263827797032766  0.7095122729329623  0.6113708129853924
  1.2523649285087632  0.0766440946577188  0.3469665007031897
  1.1345238087243235  0.1149511549608079  0.3693247661429671
  0.6156324168296398  0.5337391590091284  0.5218370893018105
  0.5782192553952687  0.4408570348065010  0.5011783843955635
  1.0222069445518125  0.0894202815120051  0.7353859476189304
  0.1458210431033258  0.1442363304327295  0.7098859360013288
  0.9369714888832346  0.3321514997952750  0.7701549004207702
  1.0263341398719703  0.2522807194837753  0.7618119063202820
  0.8426831032042523  -0.2595779816246217  0.4011591501223533
  0.7884517181121644  -0.2232365525117769  0.3514441544359921
  0.4628505159665036  0.3580997078286666  0.8658798126657027
  0.5026268462169265  0.4635873681838731  0.8720130992926169
  0.2793179362767710  0.3505772898923872  0.9058278367322060
  0.2794850366469043  0.3217159209032980  0.8469001659643686
  0.4359314222401647  0.8080875872005129  0.8905676284680835
  0.5694507674741899  0.8059833147273028  0.9153856465062444
  -0.0649117501964429  0.7979685122051745  0.5043253966613559
  0.9516691353308745  0.6948053555627725  0.5200576616034972
  0.1567252277187537  0.4528983095527533  0.3730651674631975
  0.1226891056184965  0.3767076430333333  0.3345064016031127
  0.1709875931022502  0.4750148425262824  0.4547136536131384
  0.2225299763541877  0.4700458605889253  0.5072832951996803
  0.8230120482646813  -0.0282905466942098  0.7185882420905459
  0.7541292670009685  -0.0181550367425125  0.6672543962718402
  0.8997275124069569  0.6206043470066133  0.8965170207514631
  0.8156060838519068  0.5357768049652336  0.8838070117574282
  0.7054465767958329  0.3440092888293034  0.6140731905476878
  0.6024465760511737  0.3910757308984146  0.5768626324657135
  0.3123356228818210  0.6345454419601075  0.4975043253226253
  0.3999216076406487  0.6753846547003407  0.5360792051046872
  0.2403937411964550  0.5306356099948280  0.6668332949757543
  0.1752778068806639  0.4420634980575529  0.6381627553440378
  0.2954900545385056  -0.3023414267362695  0.6862557126787497
  0.4177289788634358  -0.2399342875630485  0.6942528791577768
  0.8385321552153536  -0.0916382360806492  0.5702723884315385
  0.8989572390091064  -0.0484028666007669  0.5185948022568198
  0.4996727115990819  0.1366699534618084  0.3313510260161499
  0.4907129894164499  0.0953006587311121  0.3886360756675429
  0.8311019423281101  0.4613386233567829  0.7449814467727867
  0.7292694603658105  0.3901195849566963  0.7466596254528405
  0.8417473915617432  0.3418563359589954  0.6861813682744722
  0.8730321461702486  0.2665098882885029  0.6435012314275877
  -0.0167825156078896  0.1819585342183835  0.5585784782988682
  -0.0237589065475071  0.1282204816533017  0.5064067693738802
  0.5385166294455569  0.5703530576578008  0.6853504147679689
  0.5645947443920388  0.4926525456637535  0.6492202027520392
  0.5555460069751331  0.4814428413095636  0.7516035734254388
  0.5599042787238008  0.4075566206352819  0.7888429759827149
  0.7322791136380699  -0.0782782350816167  0.4773271050921630
  0.7428973854879883  -0.1014360345937102  0.4217844858634268
  0.0856273402116534  0.0070121569522153  0.4977311272506484
  -0.0100201274025257  -0.0197025395865190  0.4526338065421141
  0.7611468345491037  0.0577496724869947  0.4031968971091482
  0.7742119213094956  0.0684485411933574  0.3454718458206280
  0.3703630587865551  0.6223813853356631  0.8873900551120755
  0.2671399561052538  0.7028041040805866  0.8781206872063385
  0.5724185366639647  -0.0512980687919266  0.8885385018519129
  0.6350011827370097  0.0144606259949146  0.9276679561723854
  -0.2124004878783220  0.9198616049451036  0.8892597429271829
  -0.1956087634856704  0.8263752516104980  0.9196533973645837
  1.0238786249211480  0.8405018234950679  0.6438667881954498
  0.8871444848328168  -0.1320342064661710  0.6571568683691685
  0.3867408273837599  0.1284903853342586  0.7146861770173990
  0.3470829224854278  0.2101592846622649  0.6799885526550136
  0.1457604319590506  0.3537252762555694  0.7874412368423230
  0.2790398055627136  0.3419208687762028  0.7606210907660879
  0.1350572732164327  -0.1277165232292582  0.7003352571441114
  0.2343723504424059  -0.1630442092853158  0.6659576511042443
  0.5650124187709936  0.6105684079855108  0.8594540808342286
  0.5476439655722168  0.5795825465447507  0.9150544429760408
  0.1901936128584266  0.2293760754822988  0.8998374909514489
  0.0574454908713092  0.1885948358914761  0.9028026274023099
  0.8703806860420906  0.1087238973742122  0.6201028943652422
  0.9767229905808128  0.1488494056385785  0.6511046498258145
  0.8794524836738176  0.0467474158347648  0.7858432819346555
  -0.0162761222509053  -0.0430597405437703  0.7719872221868048
  0.7028786750655629  0.2801273362673620  0.4988843577188846
  -0.1497467075995656  0.2684351044571457  0.4977185007486140
  0.5283165508374909  0.0519449486484118  0.7703710146407710
  0.4575534744864653  0.1284648478553775  0.8058664447846791
  0.7196294066763359  0.0339179632450043  0.5592069110755055
  0.6546135966092982  0.0876516638926659  0.5982973079331376
  0.2886238640919503  0.0695410481644929  0.6384164544522086
  0.1999105677400116  -0.0217210827011966  0.6310976411867619
  0.8522825497225078  0.4043934851875553  0.5127849556471203
  -0.0275349347719695  0.4635030953185587  0.5056590858698456
  0.4088047632980097  0.4888672490166034  0.5516908684737987
  0.2934980080008291  0.4948184054859254  0.5900009220149698
  0.2915847927628913  0.5900405135603692  0.8200620704882612
  0.2490485438923797  0.4915254370409747  0.7947511940972841
  1.0629243874267367  0.9584948896193876  0.9222265095818729
  0.1234804048572000  1.0484178434824742  0.8990399701597004
  0.1171548538091100  0.6297772827534250  0.7085332129263993
  0.2263489345862358  0.5818875465782514  0.7429545188064289
  0.8720928422225546  0.5954107372704578  0.7964930836674398
  0.8715201295626644  0.6291086541093637  0.7427078116113326
  0.5147785652726726  0.1720544820811234  0.4746646626404495
  0.5298457106442177  0.1948430618906939  0.5282095171448288
  0.0804256432985379  0.7075874258209333  0.3463375878023578
  0.1629955576481253  0.6453367182656234  0.3850573809865867
  0.5468065536616759  0.2417806090022826  0.6047885996381543
  0.4579796702600097  0.1552477618886981  0.6197300115610661
  0.2619410187541786  0.7816045664157711  0.5159133842151513
  0.1252789276077637  0.8036942904795885  0.5246612440054925
  0.9361924654653094  -0.1182753437031095  0.3815223552946340
  0.9911880099129484  -0.0356618092153910  0.3581919707406563
  0.6183562643508485  0.7486996583733894  0.7260650680251911
  0.6788151791390131  -0.1611156092584443  0.7088978706742461
  0.1619145147389219  -0.1108930070489411  0.7836199843818527
  0.0401926944883975  0.8320344136540602  0.7845891163783884
  0.4233696034234836  0.2042488412315056  0.8869347592003844
  0.5047817200518955  0.1147844839501044  0.8856998730136835
  0.9743803328153382  0.3952416262370418  0.6333920094652968
  1.0132213867433304  0.4396704668822813  0.5794876669261529
  0.7868728536167423  0.5553873400724559  0.6505762568751604
  0.9158102017388827  0.5287276786365257  0.6253205114941747
  0.7679127209117966  0.6431674781226399  0.4708165427762191
  0.8025712115252123  0.5772929365701758  0.5158661431791657
  0.9720803701338164  0.4478259435714482  0.3656202678357338
  0.8590779327912940  0.4830815151134273  0.3382059550968765
  0.7321795461852674  0.0716870432619559  0.8368518383720575
  0.8039828095469773  0.1561104687066525  0.8413006582951700
  1.0110589203960321  0.1996801909588989  0.3440600847444799
  0.9494729542391053  0.1374514231839281  0.3841301169647440
  0.2356363526032136  -0.0535942608379383  0.5208156451851271
  0.2210803440764039  0.0293940520421240  0.5569076371305505
  -0.0326336415806504  0.7369280871041756  0.6874067453032514
  0.9462032895928290  0.6391000951599710  0.6820345271723507
  0.7156099946758033  0.6604739108054699  0.7962161625369686
  0.6506081772831338  0.7424961535209861  0.8321265969826064
  0.3970147180188038  0.4320479036568328  0.3449684263402255
  0.6093996235755439  0.4450352800786962  0.3501910795262269
  0.7053364243723285  0.6132253866086955  0.3590750069185762
  0.3544424381178892  0.7130760897711106  0.3641238958531184
  0.5693089028110121  0.7309885793136899  0.3956006087358316
  0.3833002249119253  0.6716464555533769  0.4230730078742023
  0.5416701399745423  0.7022734105193118  0.3331553671430675
  0.6224093444949612  0.5583097792701210  0.4108049810669153
  0.4291166701850180  0.5035661618853815  0.3398158382150187
  0.5654913519583077  0.5120813210545775  0.3390640560111695
  0.3537461350206535  0.5681385467713458  0.3681541068858347
  0.6147519584903777  0.5867504273679454  0.3726693561201733
  0.4046207640957329  0.6584147857308624  0.3847413258531429
  0.5347977118113201  0.6742190682563769  0.3723628970518474
  0.8937761227685878  0.6319257793663895  0.4140246753569684
  0.3289074761166912  0.1183236991433898  0.4572311473557035
  0.4882321376999728  0.5956028717586701  0.7489535575011368
  0.7615459471408506  0.3948301967663562  0.8834671720261156
  0.2521046369076949  0.8119306182353119  0.8898653421292207
  0.1430637572984228  0.5087235267209056  0.9182006836269915
  -0.0254756744501712  0.7876033609719273  0.8341108148089079
  0.3362651018451545  0.2952037270283482  0.3746963319175828
  0.7135375842709587  0.1522923390538331  0.7047137230161177
  0.2971387174465442  -0.0530129167742367  0.8191314601400550
  0.8801157922590298  0.2276485713925926  0.8718666611931065
  0.3672292473245641  0.3344536012902595  0.7077827860053458
  0.5553605707131781  0.3765170185643104  0.4381869075897986
  0.4938236680862458  0.9331779404041108  0.3874503916795159
  0.4835966465315460  0.6961239325018833  0.5833662889137229
  1.2011367749924549  0.0727496858900242  0.3772120364533936
  0.5827335924645386  0.4769471808258653  0.5328515090569563
  0.0569453921666126  0.1459102662962085  0.7173473642706563
  1.0051461955763559  0.3011645452025548  0.7862079277816498
  0.8110535757243509  -0.2010764713988436  0.3845932920355552
  0.5286452022874386  0.4009658652080040  0.8576422920576463
  0.2955213130411977  0.2976029181363823  0.8821370563162954
  0.5273862860570466  0.8085212028499575  0.8830959886255864
  0.9756158315213708  0.7571290847853582  0.5277735871777662
  0.1043052261328958  0.3988777680586321  0.3698241614447592
  0.1473625475689607  0.4575140834469416  0.4898337931592926
  0.7718459405189161  -0.0626668975081198  0.6927544433270378
  0.8903621525888010  0.5695822200927155  0.8726132195086859
  0.6188522610508628  0.3460456214812737  0.6044650242706689
  0.3564918347015683  0.6880570519076944  0.5047170622683965
  0.2546641630648793  0.4672634320568215  0.6501328975631305
  0.3521096636247048  -0.2505572152969014  0.6721516198375511
  0.8326972993221444  -0.0852724428966166  0.5340562419395610
  0.4972046882645275  0.1521761259644243  0.3684472971904808
  0.8177452599442936  0.3921684419368827  0.7416628168908983
  0.8522437886295458  0.3302738381333244  0.6503279160091273
  -0.0140454557069292  0.1920119220194992  0.5218847438149785
  0.5797397598703904  0.5577805603816124  0.6536553406582001
  0.5674933802950999  0.4127705773699347  0.7518187601999643
  0.7104100566309633  -0.0537421178338276  0.4433690017605162
  -0.0043190596938740  0.0101833408208109  0.4866585895619026
  0.7999794809357270  0.0978660936478144  0.3769720242546224
  0.2886468911130975  0.6378070599377051  0.8734491172651502
  0.6170765603027545  0.0078428037039431  0.8905910542602926
  -0.2132072630188234  0.8502602148104453  0.8846168253608655
  0.9388885401890223  -0.1799511928958229  0.6426894220336763
  0.3549130765178075  0.1430330484915821  0.6801410188851524
  0.2414936866956696  0.3676960455789764  0.7923590622350911
  0.1579865342991387  -0.1273737606923672  0.6637951230352429
  0.5161578586413885  0.5739490787916753  0.8812123774663346
  0.1411476373617178  0.1701005165493160  0.9078443435711262
  0.9324546075512843  0.1585497022491938  0.6205320016994318
  0.9346056458950577  0.0098078298017038  0.7582861673981696
  0.7842035321653872  0.3072795440461944  0.4868217025654609
  0.4457861134163226  0.0812546693884831  0.7741595931563193
  0.7253321647304914  0.0460848759936439  0.5954118036229528
  0.2451432708269518  0.0309703625334388  0.6155379317255019
  0.9005035757222326  0.4570453340975586  0.5257783180946083
  0.3212547991717837  0.4968942805689424  0.5532167583990455
  0.2818406278265108  0.5547136298944833  0.7890465294893692
  0.1005258438696754  0.9847604013316115  0.8911105038902256
  0.2066347308797923  0.6124792476622464  0.7071064431849474
  0.8192517045377682  0.5967783999113985  0.7673151226856771
  0.5595642197235419  0.2117561133085324  0.4956004052786513
  0.1067623229190654  0.7010450174481770  0.3820188163030213
  0.5209764770210500  0.1762233145299821  0.5951190950210714
  0.2005587285488410  0.8331274198934281  0.5149918176153354
  0.9857641273491545  -0.0624212551447853  0.3906941936630767
  0.6378764363817374  -0.2185901652161102  0.6966257833700374
  0.0944294363853375  -0.1332456800796955  0.7614168378457008
  0.4698405487312834  0.1656908136014060  0.8639411784997734
  1.0310590755128461  0.4369965821743091  0.6147174052166274
  0.8634503857623275  0.5831879113974844  0.6371934882584607
  0.7412277691632966  0.6246898076048967  0.5053424998404620
  0.8873557586848509  0.4681230594216669  0.3731461224793308
  0.7866774497017270  0.1059364724281557  0.8160469894319200
  1.0180136876662749  0.1829357662854701  0.3801764786356231
  0.2125169590925106  0.0120640713097479  0.5209838420170968
  -0.0208155318158895  0.6814617652506452  0.7089449586411631
  0.6397833410373072  0.6811921936082755  0.8141039461476132
  0.2437554865722727  0.5498155146300888  0.3801981107951103
  0.7350976255171795  0.7266220305826111  0.5929941134955372
  0.7557055705467710  0.2920887367665580  0.3813971510399128
  0.1744599789765263  0.2546477890508279  0.4486316941307809
  0.2314709107100621  0.8751125197999807  0.3958685548510257
