1-pos-1
1.000
11.0985002518  0.0000000000000000  0.0000000000000000
0.0000000000000000  14.4173002243  0.0000000000000000
0.0000000000000000  0.0000000000000000  26.7964000702
Pt  H  C  O  K  
96  168  6  81  4  
Direct
  0.0000000000000000  0.0000000000000000  0.0018699899937576
  0.1249999521128992  0.1666699702868031  0.0018699899937576
  0.2499999943280624  0.0000000000000000  0.0018699899937576
  0.3749999464409617  0.1666699702868031  0.0018699899937576
  0.4999999886561249  0.0000000000000000  0.0018699899937576
  0.6249999407690242  0.1666699702868031  0.0018699899937576
  0.7499999829841874  0.0000000000000000  0.0018699899937576
  0.8749999350970866  0.1666699702868031  0.0018699899937576
  0.0000000000000000  0.3333300219343480  0.0018699899937576
  0.1249999521128992  0.4999999922211510  0.0018699899937576
  0.2499999943280624  0.3333300219343480  0.0018699899937576
  0.3749999464409617  0.4999999922211510  0.0018699899937576
  0.4999999886561249  0.3333300219343480  0.0018699899937576
  0.6249999407690242  0.4999999922211510  0.0018699899937576
  0.7499999829841874  0.3333300219343480  0.0018699899937576
  0.8749999350970866  0.4999999922211510  0.0018699899937576
  0.0000000000000000  0.6666700318690679  0.0018699899937576
  0.1249999521128992  0.8333299447943854  0.0018699899937576
  0.2499999943280624  0.6666700318690679  0.0018699899937576
  0.3749999464409617  0.8333299447943854  0.0018699899937576
  0.4999999886561249  0.6666700318690679  0.0018699899937576
  0.6249999407690242  0.8333299447943854  0.0018699899937576
  0.7499999829841874  0.6666700318690679  0.0018699899937576
  0.8749999350970866  0.8333299447943854  0.0018699899937576
  0.0000000000000000  0.2222199683821562  0.0864100026098289
  0.1249999521128992  0.0555599860957249  0.0864100026098289
  0.2499999943280624  0.2222199683821562  0.0864100026098289
  0.3749999464409617  0.0555599860957249  0.0864100026098289
  0.4999999886561249  0.2222199683821562  0.0864100026098289
  0.6249999407690242  0.0555599860957249  0.0864100026098289
  0.7499999829841874  0.2222199683821562  0.0864100026098289
  0.8749999350970866  0.0555599860957249  0.0864100026098289
  0.0000000000000000  0.5555599783168760  0.0864100026098289
  0.1249999521128992  0.3888900080300730  0.0864100026098289
  0.2499999943280624  0.5555599783168760  0.0864100026098289
  0.3749999464409617  0.3888900080300730  0.0864100026098289
  0.4999999886561249  0.5555599783168760  0.0864100026098289
  0.6249999407690242  0.3888900080300730  0.0864100026098289
  0.7499999829841874  0.5555599783168760  0.0864100026098289
  0.8749999350970866  0.3888900080300730  0.0864100026098289
  0.0000000000000000  0.8888900002512240  0.0864100026098289
  0.1249999521128992  0.7222199606033073  0.0864100026098289
  0.2499999943280624  0.8888900002512240  0.0864100026098289
  0.3749999464409617  0.7222199606033073  0.0864100026098289
  0.4999999886561249  0.8888900002512240  0.0864100026098289
  0.6249999407690242  0.7222199606033073  0.0864100026098289
  0.7499999829841874  0.8888900002512240  0.0864100026098289
  0.8749999350970866  0.7222199606033073  0.0864100026098289
  0.2593682794964245  0.4563772981719582  0.1728215412804678
  0.5095456870384643  0.4520164740494201  0.1707657505079878
  0.1351453745704730  0.6145250168035651  0.1736247450520048
  0.8714901195079323  0.2898240968692096  0.1710681048570337
  0.0085890947819314  0.4530735328720084  0.1760338250116592
  -0.0128941980045268  0.1202490157816058  0.1692308267013478
  0.1209789800907774  0.9510164512208951  0.1753553091456337
  0.3671754008420268  0.9487742965527474  0.1659107865479341
  0.8781000110640551  0.6140182128467685  0.1719270287438134
  0.4923963147916031  0.1180333323871407  0.1709152193019119
  0.2382433720061557  0.1181293276760275  0.1712563964479483
  0.2480391692970885  0.7833997208966618  0.1721166554916858
  0.7405348709044752  0.1179955192673805  0.1718503311988217
  0.6245379223896338  0.2834085626595451  0.1714979403935172
  0.3839342018493821  0.6186988930330810  0.1688833107523545
  -0.0044283945654755  0.7803991100938789  0.1708844378985204
  0.7507697007574167  0.7827734116737478  0.1681173805249272
  0.6153343399431286  0.9533860971024739  0.1701163604684895
  0.8740058153286782  0.9505871449427634  0.1715558553297002
  0.7454460495199067  0.4508524251332636  0.1718891986510643
  0.3697657875021826  0.2867505094977465  0.1725708209231661
  0.1203559349997185  0.2845963114359171  0.1704530476308085
  0.4950931613673507  0.7828844750542066  0.1695988432548462
  0.6296567875886309  0.6113521121481637  0.1701923889646555
  0.3951249254951159  0.5110003881297200  0.2664429552214366
  0.1482596515356327  0.5144933666774735  0.2599225204487707
  -0.0054522394582264  0.0123144217875660  0.2604323524360604
  0.8765759644526893  0.1738473972800752  0.2597667734607773
  0.7568279922810029  0.3443199429205910  0.2566944932893988
  0.0111337792401238  0.6734075747230537  0.2570239422257064
  0.6358883467300368  0.8522165549130438  0.2528322456729701
  0.2646867563050749  0.6816326177931932  0.2589873654677153
  0.7517148536034779  0.6824750006118245  0.2562884897564056
  1.0013325935364648  0.3517617445707477  0.2596278936862459
  0.1358921019491254  0.8483126157341168  0.2620059759485296
  0.6343454759987214  0.1766281360922163  0.2596774782347868
  0.2558415515411179  0.0139413801525215  0.2576808230587245
  0.3803087807485920  0.1764425900705352  0.2570331454059602
  0.8793575832119440  0.5107147154215206  0.2609849780895513
  0.5048767455216502  0.0134138343095640  0.2546137657008447
  0.3828614836235057  0.8488700917923910  0.2532849835918031
  0.5147668995163035  0.3427606468283789  0.2572065986604207
  0.1235631308363115  0.1820130175951447  0.2561141655006189
  0.7489233625013377  0.0151353045233956  0.2567206462091255
  0.8876676522219475  0.8460013353014711  0.2574354522110444
  0.2444394065369336  0.3435978385225392  0.2648317305536868
  0.6303230908577416  0.5164229481918482  0.2685263041733014
  0.5065233959685911  0.6865784771143313  0.2522941847296259
  0.8955407846918799  0.5800838491178787  0.3995354954528447
  0.9938561057302367  0.6625558446580653  0.3940535680403875
  0.2749498690064083  0.0954391382986413  0.4250991020046738
  0.2764360126137236  0.0677853203578862  0.4789730752069715
  0.4891887346598437  0.5922995577568066  0.7873300660062333
  0.3799569252355585  0.5841723466717168  0.7517705517803028
  0.6645675055333515  0.2987428789365534  0.8728931791741764
  0.7316314257670141  0.3614396577118521  0.9184709904286895
  0.2735336543248390  -0.2142826294754501  0.8794378272590148
  0.2861213454840424  0.7409617757972904  0.9281552815954195
  0.2063172224399084  0.5304658289080837  0.9069603535225397
  0.0562729632950820  0.5368967000183162  0.9090172684758769
  0.0254554991026089  0.7371751097328642  0.8340806508280044
  0.0898178081888432  0.6676457677198264  0.8027381227234920
  0.4206318714677564  0.2190008713544218  0.3716920858774767
  0.3296962411391167  0.2766457656390832  0.3412390530647780
  0.6356879344536448  0.2051473703179822  0.7517193940502940
  0.7011484476776880  0.1270422870720881  0.7811538220717336
  0.2772432185872106  -0.0634306324049932  0.8196384440805997
  0.3419565265932645  -0.1428524245634204  0.7861606305254260
  0.8538313181786074  0.2598326535356507  0.8816307552958427
  0.9626520767134483  0.2458100072457960  0.8412861522682790
  0.4121361565818908  0.3440381361511688  0.6588249886682721
  0.2855872123880830  0.3668643296881060  0.6780082658380908
  0.4961592949377924  0.2786379824656142  0.4705011340915503
  0.4610424588916978  0.3591981171531328  0.4300709859238187
  0.5635992159918654  0.9400329822678728  0.3501367325618516
  0.5693708819239006  0.9273540519510926  0.4072298120349176
  0.5291684078799292  0.6372752141357375  0.6189554887801841
  0.4329615147074191  0.7195578286158419  0.6230699299779258
  1.2414855233314361  0.0583516225861799  0.3400478455288263
  1.1476287876854594  0.0997285832181392  0.3790932863812919
  0.6347261048768722  0.4976724584334146  0.5214002417152193
  0.5429932771342336  0.4081618600049451  0.5084015464543824
  0.9466338837174021  0.0432368154302111  0.7374696063325533
  0.0749539546178848  0.0595215855430149  0.7168577776558263
  0.9271309172994940  0.2817430750976277  0.7720879929057419
  1.0052682693042707  0.1929545443613087  0.7617528314708301
  0.8464319069575569  -0.2679178743735665  0.3900552121672360
  0.7946685867281569  -0.2158203412006061  0.3446296071116643
  0.4935514620645800  0.2062007072232097  0.8498709984975241
  0.4850836522373236  0.3196428087370116  0.8614112937980074
  0.2317264833402055  0.3319078705203515  0.9084315457870500
  0.2166847862628977  0.3309301155259566  0.8499669694709856
  0.5052639861129458  0.7696784624486639  0.8908644428341612
  0.6144918995874162  0.7719438379483674  0.9223704165316832
  -0.0590170884389329  0.8327626566424597  0.4648802509092791
  0.9505245926528726  0.7285903693394172  0.4560968246100970
  0.1522572670506483  0.4531057587875940  0.3702530185550387
  0.0621361429611316  0.3949166288223315  0.3373804273378474
  0.2143778761652161  0.4972458154347738  0.4470767462015499
  0.2271802679547694  0.4960818233808582  0.5067176024737809
  0.7585335834303053  -0.0618449317228733  0.7254539177752658
  0.6818661851246649  -0.0209626786012687  0.6834331507972337
  0.8759427353099625  0.5765221270200445  0.9173830124755458
  0.8972639746514331  0.4876022344565777  0.8864003757659497
  0.6558845221469818  0.3345735100507836  0.6293476584324683
  0.5838553089323091  0.3813098002519342  0.5851586377282718
  0.3563002718280480  0.6692863394795886  0.5359258183926948
  0.4475237686636496  0.7468732345499042  0.5423123599151256
  0.1776277039936337  0.5494855271549040  0.6720174298571590
  0.1115878380503836  0.4759570905469696  0.6379845945393218
  0.2483840389833670  -0.2765397701769492  0.6799043685521455
  0.3571734697989566  -0.2054573754458817  0.6883720275065413
  0.8315289846304457  -0.0925736131616696  0.5700787950090485
  0.8564829170642519  -0.0331844417787470  0.5227593556784602
  0.5265567258289873  0.1411150785825285  0.3333350624039005
  0.5064995395110524  0.0787075221328475  0.3790958919103860
  0.8110724003218426  0.4246279542879700  0.7459040883864076
  0.7146824700043207  0.3482369783309250  0.7437247706330150
  0.8216109313347179  0.3234464077705930  0.6763261082205784
  0.8460918324236677  0.2467073389999198  0.6412243383322406
  -0.0638093258938426  0.1643992238023246  0.5718379884557990
  -0.0469186825053724  0.1457806916344524  0.5141814469855824
  0.5188611775510884  0.5509690622389518  0.6893504537701929
  0.5240738418469348  0.4714633416000757  0.6430336066657850
  0.5031636066138130  0.3006994973367484  0.7300474572349520
  0.5381326488262557  0.2913971753961986  0.7897101040498854
  0.7018448413276991  -0.0993509381309666  0.4717279508920862
  0.7255987350357470  -0.1510722593699578  0.4238967863609457
  0.0465094440680202  0.0088153212545153  0.4951214505956947
  -0.0341723258183906  -0.0236534787300344  0.4489077457302725
  0.8404587453234659  0.0099552917444340  0.3846078121912097
  0.7550320168656067  0.0457140082433152  0.3489173329553971
  0.3647488794482346  0.5406915220410821  0.8837920055849966
  0.3073792655225391  0.6361022814481393  0.8808736926662785
  0.6396598154645815  -0.0851095783891520  0.8780055104814084
  0.6424042110864188  -0.0123017037476315  0.9234237833020723
  0.0799207753999143  0.8457217637424905  0.8911212873984298
  0.0212892670666633  0.7604713767644614  0.9181464073624114
  0.9443457367404372  0.8898931835639794  0.6403392804237951
  0.8023406749714481  -0.1040178498865111  0.6519800373494573
  0.3459611166722522  0.1201489218474053  0.6849190249443464
  0.3101917467940458  0.2042699234934597  0.6488201514103694
  0.1133458794214991  0.3264866012754854  0.7673069250472099
  0.2514827578570655  0.3380993503197073  0.7491723784503925
  0.1060244025501694  -0.1171411639575536  0.6967759964691647
  0.1736982194767571  -0.1503784504012619  0.6510350775886812
  0.5437275133206659  0.5119564583499107  0.8746192767947085
  0.5069569958055798  0.4411556518522045  0.9201470810372168
  0.1642747551232704  0.2044443113303560  0.9006627123558939
  0.0299058019434806  0.1656021449338946  0.9046643819316237
  0.8110553647858952  0.1128252893810414  0.6297070728827217
  0.9508056577093422  0.1269129186139868  0.6570077529697294
  0.8642042716757546  0.0046237799492891  0.8000686534398345
  -0.0303265843639921  -0.0624060289237463  0.7790691446802311
  0.7300040239748602  0.3185864873617842  0.5096216048246990
  -0.1381441177470209  0.2716304274915064  0.5160170019993583
  0.4999605090426583  0.0867146954457418  0.7541224111022602
  0.3654429093734716  0.0744725872178424  0.7782379344937267
  0.7133411610290304  0.0038903091929421  0.5911537774067041
  0.6321705906401265  0.0849304792471609  0.6075050013753022
  0.2339468805507209  0.0774130754327265  0.6194119152392591
  0.1360101211472407  -0.0077484039773073  0.6309105701142720
  0.8855352572529821  0.4177742387890408  0.5022599681987636
  0.0012748472297151  0.4917873523261704  0.4922293513623285
  0.4144237162272476  0.4927342707011509  0.5576147105713994
  0.2909533108562379  0.4983292450129185  0.5902459080833522
  0.2493899788623330  0.5672096586375308  0.8125983590913552
  0.2268358392379813  0.4794622590399461  0.7765772367289739
  1.1974348496721092  0.9605106533163256  0.9158585771188191
  0.1224547467374776  1.0329131485865994  0.8890171328458673
  0.0653000554451003  0.6834996744737936  0.7066898097502043
  0.1614515003600948  0.6233766122003861  0.7370282621755391
  0.8733292983462343  0.6158972483165536  0.7846655741262437
  0.7856993174357717  0.6121396363880255  0.7450632507798272
  0.4232733781970323  0.1530717617144683  0.4733688175713719
  0.5173630907625331  0.1752163952195600  0.5189640303760477
  0.1310162585403528  0.7029205934491835  0.3366097403893805
  0.1684791574516329  0.6367553048751005  0.3801924746387756
  0.5335377196157320  0.2286869015630893  0.5987973107344430
  0.4609969196486891  0.1365085250276500  0.6029151185187324
  0.2901454176908036  0.7825165508924374  0.4941091498863107
  0.1574205666586927  0.7850074099049641  0.4774001092567103
  0.9214629347187127  -0.1308267354050733  0.3870865003741744
  0.9931088755899612  -0.0610599703830987  0.3575315827648969
  0.5365670760005775  0.7771731010508259  0.7625563708881993
  0.5681464193756572  -0.1320995977103938  0.7339158214603122
  0.1679366961673685  -0.1328930807219162  0.7767527756441892
  0.0512468752350351  0.8152936321661919  0.7567787642210942
  0.3847219401835397  0.1118995792971586  0.8925253069458854
  0.4959915271891997  0.0652226860071270  0.8688896751505405
  0.9097596796524315  0.3827497774929581  0.6163757452243743
  0.9504919325013407  0.4560622135909806  0.5723264883276366
  0.7024706613792753  0.5393700079986757  0.6513531738880971
  0.8504059397817529  0.5181609350902390  0.6352561578646766
  0.7277913659000886  0.5907836042523383  0.4647111291172425
  0.8179068198631403  0.5522487837411025  0.5010687453697129
  0.9428327433432189  0.4547123633695641  0.3915754086635297
  0.8741666137752711  0.4744037747283634  0.3440754354109471
  0.7371234192271318  0.0508756395988565  0.8571166151210765
  0.8243482454682265  0.1382501006700632  0.8460533964229169
  1.0215381473961971  0.2224292757596161  0.3491461075289943
  0.9547855742384098  0.1420062086207547  0.3698523432153709
  0.2178361225434846  -0.0806592800876810  0.5175135230840916
  0.1869531378587377  0.0071556322123415  0.5536272264496488
  -0.1008627786460109  0.7702765166936234  0.6710846953915397
  0.8723854714631110  0.6563990628182593  0.6676842836809632
  0.6798160129046562  0.5882748408751952  0.8267557188749887
  0.6117186398494613  0.6545346855574810  0.8642597703097791
  0.4250777629738631  0.4117911290765434  0.3487429590175637
  0.6351451063450432  0.4438910101707841  0.3554438264224987
  0.7184613579485002  0.5989251847406297  0.3624146482422449
  0.3488625457184674  0.7001343041318330  0.3819188304357786
  0.5617583017929684  0.7275765525448301  0.3941924682542315
  0.4131473482695407  0.6374306570664621  0.4299136136466116
  0.5438155625325262  0.6894564569964499  0.3334575912208833
  0.6285665046201697  0.5648808383537298  0.4148480890372462
  0.4435657133585758  0.4859864368427682  0.3461525933408998
  0.5825725861520226  0.5061728815010732  0.3454210830951709
  0.3605800858950249  0.5497052161154391  0.3705364170369282
  0.6244475491880981  0.5890059813408862  0.3762522004667454
  0.4137024088957727  0.6435401014721173  0.3870156994906591
  0.5369239443710907  0.6659453514755508  0.3732993284468954
  0.9154511499382258  0.6439028978291761  0.4095749297274201
  0.2874473324251711  0.1227454331787644  0.4597691331120676
  0.4695213293214874  0.6049083520297875  0.7521428238793111
  0.7413829441654073  0.3237383618351207  0.8870038349193298
  0.3306135053522115  0.7471781598571119  0.8964900685975129
  0.1287133229256192  0.4979555886961194  0.9196242300660679
  0.0132723328880503  0.7020471214187699  0.8012225738141755
  0.3677126660728882  0.2759108764410250  0.3721360986242945
  0.6672699124459553  0.1415227297105874  0.7479834425031557
  0.2720059668431677  -0.1285760663272865  0.8100637964963026
  0.9182182561780999  0.2145302995415823  0.8687742690552479
  0.3533575439225634  0.3229729218339893  0.6840743445491925
  0.5224075784257126  0.3498741047230229  0.4568431625341318
  0.5227658707093349  0.9568356978963990  0.3803262360130875
  0.5087051816829333  0.6994431951138488  0.6050275580685116
  1.2157989826158324  0.0557990297756360  0.3760098559808074
  0.5830171462626734  0.4452516627752806  0.5347115098469665
  -0.0061631502408541  0.0916323534744275  0.7181332170734519
  1.0080761276088146  0.2563598323887614  0.7789306702511929
  0.8147949722696424  -0.2063030620175916  0.3799573963863426
  0.5305472192736145  0.2697272921420910  0.8455182350630912
  0.2350250707681837  0.2927128076161637  0.8788049989889645
  0.5927835256779842  0.7695550266824446  0.8879598856811071
  0.9729822744247476  0.7767876884483588  0.4801693126499125
  0.0878241789328172  0.4041421498027312  0.3722984948487351
  0.1748120559519146  0.4763090226092185  0.4792187541893255
  0.7039416027253687  -0.0808253602665459  0.6979946454225483
  0.9257446999772477  0.5507704547011013  0.8888718743264467
  0.5719333034722884  0.3470606057482543  0.6177104746248273
  0.3888811570284024  0.7239353115507973  0.5189191019044304
  0.1928102333784190  0.4923187074190670  0.6512486873640616
  0.3113148614056780  -0.2360097400111682  0.6624531726088499
  0.7905023427086102  -0.0639782822407574  0.5409417870059369
  0.5076350355703472  0.1413224606341945  0.3684455418427521
  0.8028602157624721  0.3573436387220785  0.7375851354704932
  0.8113703921788471  0.3121428519616266  0.6398783372087496
  -0.0473825023263581  0.1942298481292784  0.5391796688827449
  0.5417338315350201  0.5361252019967065  0.6541996568037193
  0.5679707763017487  0.3058387626185461  0.7542351140657959
  0.6597321184285670  -0.1411176325350319  0.4478618887261011
  -0.0409501059142013  0.0117529411237760  0.4833600427433582
  0.7962429603014842  0.0662254671017200  0.3799361298953771
  0.2926157188556437  0.5742363261150696  0.8698235318489942
  0.6431181401236971  -0.0216267030546032  0.8857541931722192
  0.0629615584219741  0.7789006762634181  0.8877654743987574
  0.8614946568523355  -0.1313481700275784  0.6301852793980158
  0.3433132008788337  0.1420029014204289  0.6500752270329119
  0.1842613854487528  0.3706459646927032  0.7626613246541019
  0.1016264717764071  -0.1099517604362689  0.6598599122187246
  0.4950087472682612  0.4552313820265654  0.8836055409185894
  0.1153682236473651  0.1444265623941461  0.9126844818046285
  0.8887562641267893  0.1504073824061110  0.6329764590864837
  0.8910558222941968  -0.0332950871821986  0.7732292766871409
  0.8150978903057485  0.3260056751733630  0.5006934328100536
  0.4100932143117113  0.0818772937189989  0.7467125760094929
  0.7001681551829217  0.0446138067733295  0.6187672581601461
  0.1595605535182820  0.0405114626048760  0.6074550431161146
  0.9250395741564206  0.4808705833714169  0.5105891910837516
  0.3241660030972654  0.4980062222883067  0.5559582217414180
  0.2322144282406097  0.5484134820868578  0.7785112553831302
  0.1472790321768833  0.9667853945988526  0.8839238966446441
  0.1487396842138440  0.6539811740833598  0.7065035906615608
  0.8014560440233696  0.5743730493343501  0.7759563903221277
  0.5070800344836912  0.1784266991724450  0.4836103721414277
  0.1322057769167532  0.6973266849957777  0.3763113054918924
  0.5344941405608303  0.1607979612710436  0.5855283208078664
  0.2310689249373199  0.8197962748586557  0.4724274178373063
  0.9708798507755511  -0.0761867102308560  0.3916072421410776
  0.5016921110396834  -0.1730446161823707  0.7451835596083097
  0.0939315370318547  -0.1255789253142160  0.7522352147188833
  0.4171935937244360  0.0996584525082095  0.8605949672003043
  0.9564388273972791  0.4388445021236416  0.6096232123570499
  0.7848078128562771  0.5654005501432763  0.6435417993283935
  0.7419889359703731  0.5854636498568042  0.4995801620825735
  0.8583268036377268  0.4708298922123321  0.3812860169587602
  0.7790920758773361  0.0853907949856662  0.8304973977586199
  1.0115695438380670  0.1912179671235121  0.3812595659392896
  0.1941079049442384  -0.0135799409774382  0.5164261781562778
  -0.0825804546475867  0.7080996024271714  0.6858825305097344
  0.6025825181934245  0.5982169041165786  0.8473434297150547
  0.2502145430189645  0.5331766169260878  0.3809467204235472
  0.7460759400854239  0.7345862899733165  0.5566458998642899
  0.7359300306521438  0.2405728415334017  0.4020861476904939
  0.1924875569790181  0.2845179118824351  0.4391275855366110
  0.2583478700678475  0.8711393888733282  0.3769786288917951
