1-pos-1
1.000
11.0985002518  0.0000000000000000  0.0000000000000000
0.0000000000000000  14.4173002243  0.0000000000000000
0.0000000000000000  0.0000000000000000  26.7964000702
Pt  H  C  O  K  
96  168  6  81  4  
Direct
  0.0000000000000000  0.0000000000000000  0.0018699899937576
  0.1249999521128992  0.1666699702868031  0.0018699899937576
  0.2499999943280624  0.0000000000000000  0.0018699899937576
  0.3749999464409617  0.1666699702868031  0.0018699899937576
  0.4999999886561249  0.0000000000000000  0.0018699899937576
  0.6249999407690242  0.1666699702868031  0.0018699899937576
  0.7499999829841874  0.0000000000000000  0.0018699899937576
  0.8749999350970866  0.1666699702868031  0.0018699899937576
  0.0000000000000000  0.3333300219343480  0.0018699899937576
  0.1249999521128992  0.4999999922211510  0.0018699899937576
  0.2499999943280624  0.3333300219343480  0.0018699899937576
  0.3749999464409617  0.4999999922211510  0.0018699899937576
  0.4999999886561249  0.3333300219343480  0.0018699899937576
  0.6249999407690242  0.4999999922211510  0.0018699899937576
  0.7499999829841874  0.3333300219343480  0.0018699899937576
  0.8749999350970866  0.4999999922211510  0.0018699899937576
  0.0000000000000000  0.6666700318690679  0.0018699899937576
  0.1249999521128992  0.8333299447943854  0.0018699899937576
  0.2499999943280624  0.6666700318690679  0.0018699899937576
  0.3749999464409617  0.8333299447943854  0.0018699899937576
  0.4999999886561249  0.6666700318690679  0.0018699899937576
  0.6249999407690242  0.8333299447943854  0.0018699899937576
  0.7499999829841874  0.6666700318690679  0.0018699899937576
  0.8749999350970866  0.8333299447943854  0.0018699899937576
  0.0000000000000000  0.2222199683821562  0.0864100026098289
  0.1249999521128992  0.0555599860957249  0.0864100026098289
  0.2499999943280624  0.2222199683821562  0.0864100026098289
  0.3749999464409617  0.0555599860957249  0.0864100026098289
  0.4999999886561249  0.2222199683821562  0.0864100026098289
  0.6249999407690242  0.0555599860957249  0.0864100026098289
  0.7499999829841874  0.2222199683821562  0.0864100026098289
  0.8749999350970866  0.0555599860957249  0.0864100026098289
  0.0000000000000000  0.5555599783168760  0.0864100026098289
  0.1249999521128992  0.3888900080300730  0.0864100026098289
  0.2499999943280624  0.5555599783168760  0.0864100026098289
  0.3749999464409617  0.3888900080300730  0.0864100026098289
  0.4999999886561249  0.5555599783168760  0.0864100026098289
  0.6249999407690242  0.3888900080300730  0.0864100026098289
  0.7499999829841874  0.5555599783168760  0.0864100026098289
  0.8749999350970866  0.3888900080300730  0.0864100026098289
  0.0000000000000000  0.8888900002512240  0.0864100026098289
  0.1249999521128992  0.7222199606033073  0.0864100026098289
  0.2499999943280624  0.8888900002512240  0.0864100026098289
  0.3749999464409617  0.7222199606033073  0.0864100026098289
  0.4999999886561249  0.8888900002512240  0.0864100026098289
  0.6249999407690242  0.7222199606033073  0.0864100026098289
  0.7499999829841874  0.8888900002512240  0.0864100026098289
  0.8749999350970866  0.7222199606033073  0.0864100026098289
  0.2511982556875505  0.4527087631357761  0.1733570781982032
  0.4929295983583661  0.4505462913543081  0.1750811674743362
  0.1213156440197072  0.6147559699604112  0.1713582771965879
  0.8692550630104586  0.2798401957808913  0.1737967302062766
  -0.0014924854551689  0.4453972014175614  0.1707820808993409
  0.0028993640645078  0.1164032230300234  0.1722734976976907
  0.1216778328928703  0.9488150338746358  0.1720975865981531
  0.3787408645792720  0.9448161925865265  0.1737437147379197
  0.8773736240282309  0.6161406086576309  0.1678388217677641
  0.4962306522457198  0.1180819084512515  0.1712070852234353
  0.2448615437981586  0.1191316313580750  0.1719503666772060
  0.2432688976118296  0.7849105784539794  0.1721418837237703
  0.7436459862819246  0.1219674692863918  0.1735138131995093
  0.6154658372055415  0.2866062981566734  0.1698058939887308
  0.3681374705052921  0.6214842446922159  0.1752755860748330
  -0.0038061450864182  0.7854305064767978  0.1705249367425904
  0.7467141672728181  0.7863929081944657  0.1696723060444315
  0.6305271722514986  0.9475078428952710  0.1715565545990032
  0.8702250198204567  0.9593906619137199  0.1707458484092506
  0.7507328577073897  0.4505940611856417  0.1703254585520127
  0.3687366265758541  0.2849023959268651  0.1719082587449075
  0.1197509976164976  0.2806668069157495  0.1699790278532740
  0.5064590846847414  0.7841740845033226  0.1706029576556430
  0.6300451960404216  0.6156139261247110  0.1711925616158246
  0.3614991647857377  0.5131045750668047  0.2672711242942174
  0.1031040891506411  0.5182699795420810  0.2558565721081514
  -0.0018079665580713  0.0106471037095611  0.2583811103268217
  0.8756646684423692  0.1759255622647719  0.2582034060647744
  0.7456370192412126  0.3515563844649069  0.2600741865565073
  -0.0225893875038962  0.6820316951731802  0.2582754551607329
  0.6191007260630208  0.8440315512047140  0.2579755625490781
  0.2302486736877401  0.6911266848564075  0.2558180801876958
  0.7373478968901923  0.6761496836952569  0.2610764856388332
  0.9950713774510994  0.3539840271411001  0.2589236689190921
  0.1052134955270750  0.8492144492950274  0.2599848103233668
  0.6194066856271925  0.1861860985440033  0.2621705838133341
  0.2511091052187888  0.0159806805307189  0.2581260206699241
  0.3773609889787361  0.1805288638654516  0.2608146147240231
  0.8579323104809338  0.5177192994233012  0.2538974865719424
  0.4995603740244806  0.0153281190279666  0.2631803057098992
  0.3629198325464509  0.8520524203342263  0.2644825392191983
  0.4946836558128265  0.3462553095680144  0.2550547096212610
  0.1232993106143383  0.1807128699039420  0.2567123946828227
  0.7379609722288081  0.0163428892188059  0.2589616128219050
  0.8629983014909246  0.8494548801902764  0.2601474294658107
  0.2404143854271890  0.3486787212925695  0.2592814890357824
  0.6008394053438426  0.5141340976174263  0.2637330021266268
  0.4871777467341211  0.6882122542871406  0.2564582449730796
  0.9116169336986850  0.5868443044585895  0.3888610348032555
  1.0020615162482236  0.6695661224997966  0.3856209853573393
  0.3288597757078081  0.1098893554793073  0.4267341676920505
  0.3136782728220760  0.0387584457912703  0.4691589384680421
  0.5843827965357852  0.6645976789711485  0.8039203391860396
  0.4686099727083848  0.6366279452951906  0.7692566928877828
  0.6705847955081090  0.3795672100228944  0.8786343676658008
  0.7628562866885422  0.4010475973549156  0.9222700879728859
  0.2389232942324741  -0.0772562225500912  0.8936553360550445
  0.2602272925327538  0.8366069818377264  0.9249488360514320
  0.1918346730365391  0.5662730904874661  0.9139421781709953
  0.0649882464599684  0.5172605645216827  0.8962971673239666
  0.0549615271217450  0.7982162927427525  0.8340397001332422
  0.1938650063328189  0.8283296384555821  0.8418230842465413
  0.4369313634437700  0.2241294080603007  0.3854999254130370
  0.3465213418521355  0.2860601209544585  0.3572507103387396
  0.6293440943939412  0.2444453094664686  0.7348119543153633
  0.7133172791626534  0.1595970022890827  0.7483031830532877
  0.3697620583406689  0.0832364537624981  0.8193714357742131
  0.3959335327390130  -0.0162209989846663  0.7982523602932738
  0.8974566727954597  0.3008641140307949  0.8942698061016502
  0.9616290754842364  0.2938054904801474  0.8366753897413604
  0.4333380657373046  0.3969208600064264  0.6600790759304402
  0.3192950663334236  0.4675773359521133  0.6675643123679668
  0.5502480674548396  0.3127916197513292  0.4672813430459632
  0.5035632686581762  0.3664341119702599  0.4223130579575474
  0.5355954301875993  0.9182086975470990  0.3672246311303321
  0.5707765158966052  0.9241447648598786  0.4228994686828252
  0.5646905302257894  0.6978282695495771  0.6319315467315910
  0.4928571267647497  0.7874969396672357  0.6294899524939844
  1.2438834762436490  0.1309151824083375  0.3374886047121367
  1.1325585402641580  0.1351446491636475  0.3723365498000468
  0.6285553875955988  0.5267811368524613  0.5086754523440082
  0.5401875448917219  0.4493631187606454  0.4980710946483635
  1.0376025573754719  0.1525699806398253  0.7103715829899506
  0.1393259976048758  0.2233542214840260  0.6964975428641860
  0.9192562123468293  0.3538535999341512  0.7703566206662449
  1.0231699368262206  0.2714491257665417  0.7650190363890547
  0.8500165961135127  -0.2571582622557207  0.3876535886793270
  0.7921883921815526  -0.1952187302624235  0.3407827703451601
  0.4917144425450559  0.2388030130077396  0.8747805388481439
  0.4466931946860074  0.3359439331669436  0.8880650437692315
  0.2035565922281795  0.3905885628717572  0.8894301723351644
  0.2647626195821752  0.3342178945457836  0.8479732064035572
  0.4538786059930051  0.8822429700438295  0.8900611632987158
  0.5538833270380842  0.9090517770941636  0.9236024064338161
  0.0961141122762956  0.7503679732538314  0.4813076264241542
  0.9870504631311161  0.6977542991540517  0.4615747724880003
  0.1607629184232011  0.4746463632675203  0.3779669220703797
  0.1134403588715338  0.4061448185375706  0.3413668092331824
  0.1849611408953268  0.4776532189773663  0.4601600621836054
  0.2179132016154846  0.5052130787373993  0.5095938593962812
  0.8015302896044215  0.0104218754525725  0.7127367186922826
  0.7060721725198024  0.0123144812231043  0.6657697806034751
  0.8809241654532860  0.5597943114132422  0.9167534636460086
  0.8474109474993849  0.4938069797353939  0.8750418814009366
  0.6601264015840133  0.3936801411635704  0.6228042813429842
  0.5624283415218762  0.4167441343749725  0.5781723991809459
  0.5328464295111294  0.7504846754778139  0.5438733611910589
  0.5838884048364102  0.8136765294536671  0.4953681447927765
  0.2084846228772872  0.6101300024378934  0.6667260772452952
  0.1610315726947110  0.5308221960864088  0.6303648885316081
  0.2999016325976275  -0.2339218505775235  0.6806522024756391
  0.3929132910991966  -0.1577994858472512  0.6953108637760735
  0.8479596674851336  -0.0702592212509178  0.5723706294285643
  0.8828742324361190  -0.0350559220267981  0.5213798787709966
  0.5816372565160822  0.1569148897785293  0.3413603794702461
  0.5396721657260484  0.0824464508477497  0.3846324416227106
  0.8239527437697616  0.4731122667962044  0.7717983593661744
  0.7352202787558257  0.3838816813339071  0.7725788861102596
  0.7708279225485901  0.3928164328821120  0.6870902479611538
  0.8051018384083756  0.3325051864578726  0.6361648630353789
  0.0091667186639474  0.1931574026464591  0.5572538761505568
  0.0183791499456800  0.1159545088325417  0.5136871765438327
  0.5917668098926087  0.6107060655891623  0.6999440979819649
  0.5779580635554498  0.5420750366166043  0.6525272699874828
  0.5495119644846499  0.3865895462040718  0.7678311454149905
  0.5619026913738705  0.3324598929015312  0.8132973962624278
  0.7522242784601456  -0.1033126401355992  0.4778095115783378
  0.7314350917803886  -0.1633084442419812  0.4259178212521297
  0.0812135931297398  -0.0289890213630682  0.5004448087567276
  -0.0057472991893346  -0.0016415366560870  0.4587122970771595
  0.8685819525513415  0.0223748855251200  0.3806995260174835
  0.7978927324855258  0.0811962556850228  0.3430990599824770
  0.4098000540264312  0.6350650143684959  0.8703783715013748
  0.3193260898944623  0.7041664328588203  0.8761658148405442
  0.6256093633888870  -0.0064368978696569  0.8775459891812435
  0.6724032241464042  0.0565898577338957  0.9197881660756992
  -0.1249698341246651  0.8452854914236690  0.8913122410036378
  -0.0365334308601056  0.7803160579286765  0.9211139217408980
  0.9790798580770096  0.8992099709520648  0.6407977716005133
  0.8416517601722833  -0.0812814467596964  0.6544791675133810
  0.3634401999086145  0.1856125574321894  0.6762550491941789
  0.3228159443992382  0.2806344325604445  0.6640668281591000
  0.1586987216326226  0.3972245255215983  0.7748192126855731
  0.2693807381060441  0.4024285653163403  0.7392562797354946
  0.1325310960065477  -0.0621306376758546  0.6933467464072435
  0.2119626157794128  -0.1258846898631550  0.6561308714543601
  0.6312615060186829  0.6159482388549041  0.8888829680181074
  0.5373642471227357  0.5413374518167764  0.9158269932195722
  0.2004681964789934  0.2378686308702785  0.9086624387608745
  0.0647263098348349  0.2168408171060188  0.9061047881242049
  0.8437795625747899  0.1697447577511914  0.6198992104082293
  0.9627599817792526  0.2246268817959112  0.6416870343461648
  0.8904859225729282  0.0881853208867148  0.7734970623180915
  -0.0131507057159663  0.0179357159160882  0.7490555499961301
  0.7299268369783684  0.2363668275601479  0.5016019484552978
  -0.1384169416810032  0.2118597272360195  0.4969255373451593
  0.5423667136578872  0.1212567541566111  0.7138298775988245
  0.4228700626139855  0.0675763430769025  0.7334052737649441
  0.7460957954978671  0.0799546936573535  0.5694684176875743
  0.6456371508517876  0.1272150150767253  0.5990834674525063
  0.2377705870549503  0.0987173955288222  0.5997510082099640
  0.1821927978667255  0.0059920417662104  0.6129586904274567
  0.9050750869398650  0.3836876690114553  0.5128400608215516
  0.0149369940297216  0.4482955802367504  0.5050326578027909
  0.4133409124855393  0.5564680055200507  0.5376909392438572
  0.2887186048385507  0.5762873647589176  0.5731119395466384
  0.2938625686268780  0.6198656016635671  0.8073091664636628
  0.3011688727905282  0.5195352245058541  0.7821719566692364
  1.0506059577201801  0.9565788275501911  0.9049501975031160
  0.1059214964841165  1.0520663900814653  0.8915247232283054
  0.0979851394447305  0.6919523639027477  0.7092329245350811
  0.2204470001163621  0.6458774080534980  0.7323194136037370
  0.8406066456129428  0.6117219736837523  0.8141013579715964
  0.8528100308386208  0.6325926726161947  0.7580251607822929
  0.5106776135884468  0.1545454137553816  0.4840886852568619
  0.5113841276959478  0.2140586398137409  0.5315608222815166
  0.1238414726509634  0.7029764889696666  0.3356522918428300
  0.1967020389665654  0.6720515329193982  0.3790463269204425
  0.5250003249542657  0.2672564187645665  0.6081725265970910
  0.4364143653476472  0.1896829152791523  0.6113221888606373
  0.3501275574300924  0.7485801189122430  0.4868009104703085
  0.2888175844912134  0.6688987569840406  0.5075841941853230
  0.9373571797155887  -0.1190365526485612  0.3848062261492813
  0.9974424725633179  -0.0471035777943628  0.3496897484084347
  0.5565268620684359  0.7968966573946633  0.7444844404112938
  0.6003302273944090  -0.1045702272578706  0.7236227432976700
  0.1653693838320484  -0.0043537173689568  0.7871570941485264
  0.1256729557197414  0.8957648887780608  0.7760536204871190
  0.3886927683315007  0.1235537680693951  0.9081242970492184
  0.5091099157729533  0.0985703500787714  0.8820024893860154
  0.9465193033622956  0.4381806004602867  0.6413764252166475
  0.9904432651445138  0.4463112311731317  0.5840192387746805
  0.7759392032273288  0.6052546056433168  0.6440702482156659
  0.8946887658978572  0.5579992455897268  0.6223101338095351
  0.8105698307607799  0.6046282110576802  0.4698742439027193
  0.8069023733677507  0.5350193880820370  0.5124974955226327
  0.9683246387237785  0.4464035874450608  0.3876097566646935
  0.8609939859442008  0.4647527465514319  0.3509980533302957
  0.7645663708322915  0.0996789384865415  0.8436546137569019
  0.8476335643885090  0.1852085304986181  0.8379714060722488
  0.9931638401965441  0.2235036977012423  0.3357316134119374
  0.9315857266321317  0.1572104182986900  0.3767442544018060
  0.2322163621505537  -0.1237681001115892  0.5159007748870656
  0.2317836480368408  -0.0166058926550254  0.5317857759314176
  -0.0900642353761162  0.7617958509311168  0.7005402021063306
  0.9180523961467231  0.6625001620345844  0.6758898802172131
  0.7955459514872757  0.7263240868599189  0.8784987999592999
  0.6648867804101012  0.7579458144030266  0.8975214771795461
  0.3836201181334824  0.4372321394455849  0.3518928983705691
  0.5921744165599389  0.4376118264892641  0.3473973602988724
  0.7131278463336854  0.5814825425407992  0.3650635915523180
  0.3920325202402317  0.7221064490599158  0.3567517750875500
  0.6035282500906957  0.7055914005976049  0.4056620751788495
  0.3909524673566850  0.6857246717549025  0.4188920973897156
  0.5975340775907482  0.7059914063969071  0.3409331475932025
  0.6257909682322687  0.5441936859562717  0.4128371135681970
  0.4249751201595949  0.5047703262316812  0.3417899960295540
  0.5582605066477455  0.5057486851463567  0.3394904748088463
  0.3697618276698628  0.5730959271191266  0.3720500463376456
  0.6180833453589776  0.5752937438328684  0.3740234692586897
  0.4286434859906807  0.6681356761763415  0.3810213195187526
  0.5642091603308675  0.6701816095855858  0.3746787746524738
  0.9257094860212056  0.6497839653855755  0.4021555823307862
  0.3361544325770432  0.1022067659946746  0.4636805220160031
  0.5545806301082666  0.6622695847109328  0.7691317491195441
  0.7500339781178939  0.3974737682677502  0.8842755455816400
  0.2945854293754461  0.8677435659912132  0.8959148142551530
  0.1461111892065777  0.5091364238935654  0.9124224998786382
  0.1314804837043937  0.8050849526277073  0.8182460218223018
  0.3845900414885099  0.2806736157702834  0.3904001835356207
  0.6662628529472463  0.1875342867621579  0.7214499258763944
  0.3442707468317904  0.0382126802056485  0.7917068661619537
  0.9574499363350096  0.2668589060256461  0.8723410530467397
  0.3614065025632150  0.4091584975914873  0.6819243169093203
  0.5590057841548266  0.3736736530269191  0.4505101039682267
  0.5077798445412475  0.9429726548723570  0.3988378675830179
  0.5545613697762263  0.7521039174812962  0.6095935850004676
  1.2164373700861439  0.1172940642416362  0.3716529980224941
  0.5661732230245152  0.4921747244494606  0.5270717163686004
  0.0531826689019781  0.2192803660682245  0.7002850666223817
  0.9934896401801421  0.3201651704956512  0.7849347949537093
  0.8127502246744598  -0.1961920404718030  0.3790172091173812
  0.5234727979176961  0.3042036211681194  0.8771906273873065
  0.2695861274603066  0.3458744016230759  0.8845227450256938
  0.5415454657781549  0.8936806078424837  0.8882946223948633
  1.0079402104969728  0.7473649076641292  0.4849196098975475
  0.1082576092842036  0.4178264491050008  0.3785514221509490
  0.1725965090904355  0.4552943837179964  0.4937310276992462
  0.7395089161590894  -0.0278438009096457  0.6942481514928789
  0.9038881430734752  0.5481314630863000  0.8830451391459387
  0.5689135991122725  0.3909923419503248  0.6133996571009294
  0.5186118202111585  0.7732427501377964  0.5084524531320117
  0.2376268532293155  0.5588831732531405  0.6376310228328544
  0.3545030384498927  -0.1869589071507922  0.6653491824757238
  0.8097128255993432  -0.0569272931707884  0.5407684094183568
  0.5601338502192454  0.1468484814883429  0.3778634964015309
  0.8126677035608660  0.4102189584102355  0.7579878080073911
  0.7730512462175695  0.3918809418685263  0.6496661605138540
  0.0239958095650633  0.1858625448808744  0.5199483485729287
  0.6100507811316136  0.6015163614809902  0.6634886515286791
  0.5942626201166529  0.3337823796156432  0.7782801671106839
  0.6922250760190769  -0.1316328687739554  0.4543523222934598
  -0.0031854119203418  -0.0012954979926491  0.4956470353295808
  0.8192519497150388  0.0815985232462008  0.3788818520249919
  0.3240358709472241  0.6402262649800760  0.8671847758327099
  0.6528432795795883  0.0591067913508318  0.8845996734113949
  -0.0609475718298330  0.7981998815148305  0.8856133839780695
  0.8932283909884300  -0.1232648890882263  0.6368594156040539
  0.3000602079871009  0.2179757687367284  0.6557663207096925
  0.2510041003646589  0.3977026704442088  0.7755994159794942
  0.1406124028466727  -0.0809886214294113  0.6585629432822648
  0.5524823950970791  0.5804853292223330  0.8879806434880715
  0.1406824028811255  0.1906824437883604  0.9183257212548527
  0.8930030265929484  0.2297424608192079  0.6187412425834949
  0.9291098274406582  0.0666456035978575  0.7401495939320766
  0.8091784985852911  0.2672225277383413  0.4911165733017724
  0.4611172231824736  0.0950495793928391  0.7036667093453821
  0.7186889801895855  0.0944975689487071  0.6047081017431256
  0.1960419829289209  0.0501993230938034  0.5837593132704429
  0.9354892244757231  0.4468342573973682  0.5207920629166752
  0.3231428081842267  0.5777189137229334  0.5380729953362121
  0.3104565318671032  0.5891475324266131  0.7749179095737025
  0.1119732163360043  0.9870258109153663  0.8833511862671384
  0.1861723001506343  0.6804540314465373  0.7036707468951916
  0.8035029924564532  0.5955168638181606  0.7806425683524238
  0.5575567782679823  0.2096403503275696  0.4986195469800759
  0.1364899622860591  0.7225841260308367  0.3727267262592954
  0.5048794332631760  0.2085726737265056  0.5930789948935623
  0.2659697007909924  0.7267286643958828  0.4901360536002018
  0.9906183795704187  -0.0665329412009642  0.3857056086535305
  0.5292569958672872  -0.1392217681169538  0.7371393745933340
  0.1075191387779142  -0.0398882366776767  0.7646971734941358
  0.4303574261238906  0.1305512089238182  0.8744747182275184
  0.9919980804716747  0.4749575814380650  0.6171393211989976
  0.8558572047930041  0.6153570465604110  0.6293208343852785
  0.7733525414308087  0.5967447974967672  0.5028314824641082
  0.8801806424174899  0.4611033961611750  0.3872087545647157
  0.8282972257273287  0.1289970022865566  0.8218132668346758
  1.0006932691017196  0.1986079794657967  0.3702981476095695
  0.2162618594986047  -0.0608639916245210  0.5025932928123908
  -0.0535708873641348  0.6986638491596692  0.7066572315793413
  0.7089680041070285  0.7092119072311576  0.8801574733924312
  0.2613547284309483  0.5638355120467560  0.3897813838701223
  0.8150681188868629  0.7430650493733577  0.5513689455372326
  0.7634236747010784  0.2795833948304776  0.3834346485006526
  0.1901519241987427  0.2610254742741003  0.4526557471609457
  0.2612798822372145  0.8966649881099820  0.3898812381264027
