combine
1.000
11.0985002518  0.0000000000000000  0.0000000000000000
0.0000000000000000  14.4173002243  0.0000000000000000
0.0000000000000000  0.0000000000000000  26.7964000702
Pt  H  C  O  K  
96  170  6  81  4  
Direct
  0.4999999886561249  0.3333300219343480  0.0018699899937576
  0.1249999521128992  0.1666699702868031  0.0018699899937576
  0.2499999943280624  0.0000000000000000  0.0018699899937576
  0.3750000365432257  0.1666699702868031  0.0018699899937576
  0.4999999886561249  0.0000000000000000  0.0018699899937576
  0.6250000308712881  0.1666699702868031  0.0018699899937576
  0.7499999829841874  0.0000000000000000  0.0018699899937576
  0.8750000251993506  0.1666699702868031  0.0018699899937576
  0.0000000000000000  0.3333300219343480  0.0018699899937576
  0.1249999521128992  0.4999999922211510  0.0018699899937576
  0.2499999943280624  0.3333300219343480  0.0018699899937576
  0.3750000365432257  0.4999999922211510  0.0018699899937576
  0.0000000000000000  0.0000000000000000  0.0018699899937576
  0.6250000308712881  0.4999999922211510  0.0018699899937576
  0.7499999829841874  0.3333300219343480  0.0018699899937576
  0.8750000251993506  0.4999999922211510  0.0018699899937576
  0.0000000000000000  0.6666699625079541  0.0018699899937576
  0.1249999521128992  0.8333300141554991  0.0018699899937576
  0.2499999943280624  0.6666699625079541  0.0018699899937576
  0.3750000365432257  0.8333300141554991  0.0018699899937576
  0.4999999886561249  0.6666699625079541  0.0018699899937576
  0.6250000308712881  0.8333300141554991  0.0018699899937576
  0.7499999829841874  0.6666699625079541  0.0018699899937576
  0.8750000251993506  0.8333300141554991  0.0018699899937576
  0.0000000000000000  0.2222199683821562  0.0864100026098289
  0.3750000365432257  0.7222199606033073  0.0864100026098289
  0.6250000308712881  0.0555599860957249  0.0864100026098289
  0.4999999886561249  0.2222199683821562  0.0864100026098289
  0.1249999521128992  0.7222199606033073  0.0864100026098289
  0.2499999943280624  0.5555599783168760  0.0864100026098289
  0.3750000365432257  0.3888900080300730  0.0864100026098289
  0.0000000000000000  0.8888900002512240  0.0864100026098289
  0.8750000251993506  0.7222199606033073  0.0864100026098289
  0.7499999829841874  0.8888900002512240  0.0864100026098289
  0.4999999886561249  0.5555599783168760  0.0864100026098289
  0.6250000308712881  0.3888900080300730  0.0864100026098289
  0.4999999886561249  0.8888900002512240  0.0864100026098289
  0.6250000308712881  0.7222199606033073  0.0864100026098289
  0.8750000251993506  0.3888900080300730  0.0864100026098289
  0.7499999829841874  0.5555599783168760  0.0864100026098289
  0.2499999943280624  0.8888900002512240  0.0864100026098289
  0.7499999829841874  0.2222199683821562  0.0864100026098289
  0.8750000251993506  0.0555599860957249  0.0864100026098289
  0.3750000365432257  0.0555599860957249  0.0864100026098289
  0.2499999943280624  0.2222199683821562  0.0864100026098289
  0.0000000000000000  0.5555599783168760  0.0864100026098289
  0.1249999521128992  0.3888900080300730  0.0864100026098289
  0.1249999521128992  0.0555599860957249  0.0864100026098289
  0.2474016079203744  0.1217899496148734  0.1724032186150861
  0.8733831858973837  0.6179903001314238  0.1712336288971429
  0.6235918966238285  0.9486507152114227  0.1695914611587631
  0.8798097714974004  0.9532553662395054  0.1704244667879343
  0.3710473450980113  0.2876600728484422  0.1749648474689685
  0.1296877687024931  0.9494289772941591  0.1723080013398807
  -0.0075011797279995  0.4563555066440637  0.1708816324731721
  0.7520794953666156  0.7827318242204332  0.1722819303192148
  0.3743703272454432  0.9523086816669670  0.1702152206546735
  -0.0038317550060967  0.7862679207715804  0.1723366736390696
  0.7524345026658550  0.1164293495512264  0.1732915143353188
  0.3734094795400723  0.6187826277532588  0.1726646361816864
  0.1238313954695909  0.2952201028543577  0.1727810417769093
  0.7472855728191640  0.4532953853790824  0.1710606134253685
  0.8876027334956644  0.2869054960115346  0.1680365293511007
  0.5044735423411778  0.1135393564768107  0.1697080308245323
  0.2527312207831940  0.7839748481376153  0.1692441424676099
  0.4916521599046705  0.7857742386265693  0.1728734062024856
  0.4970259639094348  0.4490824770775944  0.1728520517892622
  0.0076200368411294  0.1205940677207765  0.1714130498935232
  0.1223379410366542  0.6197939209408296  0.1742818357602295
  0.6173625862276975  0.6218831995041789  0.1717647511173932
  0.2422286883008349  0.4548231283030229  0.1721855817913067
  0.6320581347252116  0.2825890362353062  0.1722338148672652
  0.8712585863960974  0.5205880514612375  0.2583765136272771
  0.7448611647379338  0.0209270623629986  0.2592483145572080
  0.3737072024958801  0.1821745035157941  0.2609333139333075
  0.2389034951699869  0.0169646895184827  0.2574164461319194
  0.6173273022531860  0.8567617934168208  0.2557068848371190
  0.8715847734319911  0.8534534991621441  0.2586592509494604
  0.1305307316243061  0.8497862454615598  0.2589087942083489
  0.7348802220441645  0.6832743713137384  0.2585512250358147
  0.1217529030538018  0.1845210768460060  0.2575627548521106
  -0.0002021112176518  0.3497019768446135  0.2584045771320028
  0.3753794526989642  0.5176099800586852  0.2610089417301269
  0.4920722366082093  0.6959674912982661  0.2583132783047875
  0.2489622796153803  0.3587360820081081  0.2638157669007827
  0.4995385983525864  0.0216849544391852  0.2551731951152708
  0.2381974070299493  0.6843244467276138  0.2563852884977740
  -0.0024014904622521  0.0249300092325331  0.2551633636416657
  -0.0087390124520896  0.6860105123447415  0.2584048152311498
  0.7478643405404115  0.3534414857236150  0.2545180654913657
  0.4906482304865320  0.3576777500345336  0.2578744964023977
  0.8702126160454532  0.1890745480978116  0.2531917235683129
  0.3722850347847572  0.8593880590151595  0.2604199415152229
  0.6228303137875683  0.1870312767958553  0.2605414189297813
  0.6219944134776597  0.5271137082372147  0.2606336413176217
  0.1124635175097253  0.5187538537412352  0.2619620247425126
  0.2124686662071802  0.3361937866585098  0.3512971057731241
  0.3221517920243437  0.2146845959192252  0.4016126159598600
  0.4492304234972094  0.2938170991723016  0.3491316429778238
  0.3537500049038833  0.5064136185215974  0.3421641081331850
  0.5475793521124043  0.4549110946476415  0.3685793846832309
  0.5030944295644296  0.4456652977490427  0.4314729456348838
  0.5405907500634544  0.2884093847121011  0.4047635427141556
  0.3489636261774978  0.2950566468630599  0.4533411587107018
  0.1431357266800400  0.3260639781764859  0.4075268030590534
  0.3731895543569734  0.5555532731017181  0.3985185319380215
  0.6247281383784704  0.7534300923269704  0.5016762856645790
  0.7637149156819916  0.7352540682085074  0.4944649339907063
  0.0483911634829126  0.8955157096846029  0.4494697547635960
  0.0051921805192241  0.9225521285796618  0.3975393003982901
  0.7390973868086028  0.9357396275525655  0.8001589652352121
  0.7087700162302752  0.9170473272600476  0.7443279587611835
  0.4707550460570238  0.5490451772002503  0.9075750723973455
  0.3352216872452294  0.5289223462272906  0.8858399501430801
  0.0575752995992737  0.0697138297991432  0.7789180539856082
  0.1564836111454184  0.1379037988158794  0.7559115249636149
  -0.0623566963912766  0.3804023050138211  0.9237938355021448
  0.0364907339650974  0.4058235733579639  0.8832809031957158
  0.0896318473965582  0.7595652236847066  0.7859904628988771
  0.0011631654644425  0.8284772663031601  0.7597074890981077
  0.4014537562566062  -0.1358601738554766  0.5140935171109042
  0.5353585087891811  0.2032237522224628  0.8757013690542671
  0.4591815629840142  0.1637859957733279  0.9233807810071005
  0.6632242999324341  0.3278849651568187  0.8697082895592870
  0.7262893191260394  0.2239919282291837  0.8738068753138017
  0.3070151487132122  0.4329609680791032  0.7747683499242907
  0.3222942761766276  0.3439351679895224  0.8070042397877439
  0.5757778349523937  0.2317344480327082  0.5635725929429776
  0.6204824251171351  0.2182022335220353  0.5099549535161874
  0.4351466980790252  0.7879398075343582  0.3807049937407453
  0.3804279025191020  0.7090099689240749  0.3473312552438890
  0.5407748041296485  0.7452185172291266  0.6624276021927417
  0.5765278743280876  0.8561765739465500  0.6615540057268480
  0.4986545767841399  0.7854047405917695  0.5753914941114298
  0.4619539735081308  0.6991544338662343  0.5408294254875197
  0.6312926885831870  0.4330736527825307  0.5398391232256308
  0.5202764615573624  0.3701565206504611  0.5174713703696582
  -0.0283875746228777  0.4340102962657010  0.7536142177380648
  0.0535527743222428  0.4699133566478075  0.7057318889461877
  0.5904406771389861  0.6637678844732969  0.8195136273854003
  0.4826169991419597  0.5884987367953594  0.8282154033026555
  -0.0651106195796861  0.0626759463798204  0.3760354890657815
  -0.1105101651190287  -0.0056716120513451  0.3365305266257989
  0.4665700355559458  0.9266221591600821  0.9193960674701973
  0.3516438578867483  0.2405713366330623  0.8753139653816543
  0.2188810779371757  0.2607486109683565  0.8734829714506984
  0.2902897063211292  0.0708222866358168  0.8094626865577361
  0.3998743972709489  0.0979000608394787  0.8455464586378260
  -0.0520605079957800  0.9001283450855023  0.6288280253637157
  0.0449781143735199  0.8257287375714624  0.6131307725462457
  -0.0494271961214788  0.4646062888397141  0.3402782485189230
  0.0239797422500249  0.4703957419898480  0.3900864067641897
  0.3398656705790714  0.5609465713538376  0.5354288998750911
  0.4841560378149758  0.5198085837713674  0.5302652309778694
  -0.0552002627923209  0.2951632979680573  0.6376279379520576
  -0.0621832900339909  0.2857671172620695  0.6979756215761115
  0.5988182883288332  0.3972583740710776  0.7714703915989751
  0.6026004040694884  0.5079810260700586  0.7793526763889717
  0.5576668702598983  0.6388395248145141  0.7296469977675650
  0.4949824320100395  0.5915888533225098  0.6808809287143854
  0.3335834137319184  0.1860880470865177  0.6684735797373212
  0.4432823752922915  0.1712605167185441  0.6312060205732613
  0.1418449527939308  0.6136327433543157  0.6472495809796495
  0.1371382765210237  0.5330054496089335  0.6112624629722415
  0.6819533592633368  0.0022443365676372  0.6585547522379669
  -0.1982696133419571  -0.0052060892214405  0.4822022954295875
  0.7721909669380830  0.6809288819451390  0.8197140809308739
  0.7966855746086924  0.7697061546721584  0.7896256420290890
  0.8679681326526669  0.6783873676789491  0.7188131258392665
  -0.0380794772186861  0.6028725432831175  0.7203464482031795
  0.1365863261708846  0.4162410377905111  0.4793729266411914
  0.1523388305754005  0.3459080626062315  0.5244076327374790
  0.7235701872149414  0.2389475722156062  0.7408038173372382
  0.8295623878016118  0.2713775635819475  0.7723685582608009
  0.2559365471870232  0.7196064437163876  0.8137248715938153
  0.2049438235072438  0.6428749646607302  0.7773197139777043
  0.4593849805673615  0.1397957480349173  0.4650033935960339
  0.9073168285567980  0.7942087259375183  0.5620990403352931
  0.8093204660821828  0.7107004255366742  0.5739010750739705
  0.7363325091401066  0.0644866859630885  0.3859457651440719
  0.6398954975423988  0.1031932629239699  0.3567518616738076
  0.2487882099252267  0.3918881470316556  0.8843611251331465
  0.1957169366777921  0.4508352552820328  0.9247096678802145
  0.8214828721854857  0.6137823629895067  0.9135706247692729
  0.8753730574565088  0.5526447382340511  0.8739491048591890
  0.8059971815966039  0.4180221173685530  0.7861248496967517
  0.4984555505779062  0.2981857586730480  0.7583957631495505
  0.5819565329966522  0.2485917587995581  0.7999043713575971
  0.1918525149967596  0.5209974355905943  0.8287009867939421
  0.1346808080269741  0.5110448631833032  0.7741809604705294
  0.5464776721085661  0.1259727711599472  0.7541766563962621
  0.4674336243006004  0.0465363902646049  0.7649963496588069
  0.5612905758766529  0.8038151251208110  0.8762695605635785
  0.6194919694473958  0.7343351026328534  0.9115066853275898
  0.1172662948031128  0.1354038879213797  0.8431361694411129
  0.0162437168815454  0.1461915182183379  0.8880116629980737
  0.6786172310874605  0.4339938714013841  0.6160853657375918
  0.0735922293615783  0.0921223743375633  0.6003783307553791
  -0.0028617421705107  0.1785508751882141  0.5757274031132517
  -0.1491691332557744  0.3755504315970423  0.5631862955756863
  -0.0331198265495723  0.3595518288897731  0.5376257492334295
  0.2336059098777341  0.2943731939872301  0.7410620018240304
  0.1213390666078139  0.2715488334078917  0.7048009272709385
  0.6766602069123719  0.1697540516410261  0.6345950759076378
  0.6097182015923734  0.2649577102141167  0.6481049862706569
  0.3499706852617364  0.2551074328327358  0.5296212209446265
  0.2660163132150374  0.2183654237909065  0.5758267273505755
  0.1660151584175684  0.5052316555996296  0.5281292208925575
  0.1472317312634185  0.6036415535782150  0.5156926412838432
  0.4115649373039553  0.5493209875765437  0.6038518349595319
  0.3270247763080741  0.5378622628132518  0.6478295116031395
  0.3560014960903566  0.8008279795852402  0.8831162253662895
  0.3692158115359246  0.6944348115970584  0.8890212953117099
  0.0463434497392188  0.8251864703523319  0.8982138008853947
  0.1821914865994669  0.7921394929024930  0.9060478520769745
  0.1752702485351130  0.7624517751438943  0.6642827595299126
  0.0349995463159088  0.7153076327576243  0.6651383829061845
  0.8867212705702197  0.7590552255237745  0.8989627725176820
  0.2148528397351043  0.1439888060665528  0.4843900771184120
  0.1309294541903828  0.0630039318019475  0.4824226496967477
  0.0619871190874121  0.1696777046840456  0.3567328699622841
  0.0662658289151024  0.1387433644843253  0.4128741148891731
  0.6220722199091963  0.4333171604674218  0.6980094903531718
  0.5091194543320017  0.4378220679528421  0.6652010322320494
  0.3651238570763448  0.8198223942287277  0.6756557427366724
  0.2994037424886369  0.7638795052861372  0.7195916195490688
  0.8909408076551879  0.6328769189061549  0.3506135935419282
  0.8873027539286539  0.5607189736240998  0.3854048420289509
  0.8359863824299345  0.0924290743459704  0.6768633810282049
  0.8647231980233995  0.1095450229327996  0.6225460236411334
  0.2095145400769688  0.0721223260196404  0.9100998221220384
  0.2101189643908676  0.9658113924846196  0.9065356379424548
  0.6927156166215440  -0.0317474223522472  0.8835246786761121
  -0.2034469367727225  0.6372869766361615  0.6391895520453827
  0.0755905084800928  0.9700676611857855  0.7233547766013529
  0.1511613248851267  0.8846006651303692  0.7016245377232000
  0.9762351958358315  0.6818323388058101  0.5067900384911159
  0.7776337628140576  0.4451835183040748  0.4309287185610307
  0.6632574004858122  0.4704928791846218  0.4631757278919953
  -0.1088213092308685  0.0143026046341497  0.7507565290784169
  -0.1453272719112126  0.1201279198223875  0.7488220535457260
  0.8271377368136880  0.2483791407467805  0.5081896594402638
  0.8011848768717977  0.1450191653341611  0.4882084251365023
  0.2131348657505645  -0.0611594371818536  0.5123580015014131
  0.0906136260020263  -0.0398006874083709  0.5427951983623089
  0.2531357120836534  0.0702846608404591  0.6261195195192791
  0.1476560129765478  0.0087458378987958  0.6467425071874833
  0.6231939401792824  0.4231939480955240  0.9168229438036091
  0.6968627640609051  0.4908932744891650  0.8803693892387808
  0.8234393588104670  0.0855796197765526  0.8854707856144837
  0.8504521798942326  0.1672526606913381  0.9238637886486528
  0.8914731507074884  0.0243234664981825  0.5279287787665283
  0.8968380874060612  0.3857163675572970  0.8274954983620865
  0.7455473962941987  0.5187555142948498  0.5936685701819822
  0.9307174163035864  0.7903747001740239  0.8420352526454720
  0.6588140263558704  0.6382014943957194  0.6454619026730670
  -0.0295035695338110  0.6064951611996099  0.4648200720794446
  0.4033047004322995  -0.0347404215635191  0.4883091475952254
  0.4557902765627795  0.9581294404078133  0.8651433169816446
  0.5960397934601234  -0.0110643614767164  0.7024847809924306
  -0.4595254516098113  0.8849266787963729  0.3383880851138644
  -0.4218982480845178  0.8963408720045184  0.3934952585450520
  0.5322220019449925  0.0619435951395928  0.4392551887590977
  0.7999149647232879  0.9058720669759868  0.4173234073160535
  0.7204317248452756  0.8453581740885021  0.4520412994307706
  0.8216682805067285  0.9283314886820172  0.8755670743321935
  0.2334379221264433  0.3442144205289968  0.3930250993495260
  0.3413184033928933  0.2862439193743273  0.4122397287606085
  0.2515111496390947  0.4462574821086089  0.3989347640912503
  0.4589406112302342  0.3215484547853399  0.3882183298706943
  0.3654699883655140  0.4844154058697276  0.3832659878675765
  0.4778929560541113  0.4279694811515641  0.3929776904924903
  0.1721309919590410  0.4971714449157918  0.4209386801118846
  0.6863728612849767  0.7402522458824761  0.4752948570044596
  0.0534106525252239  0.8759838514851479  0.4143052079240411
  0.7710532890614750  0.9124305583390666  0.7700103884568550
  0.4067657964658623  0.5673214360074217  0.8830114444258406
  0.1427109656859376  0.0906409956211790  0.7812792389259079
  -0.0513052971555909  0.3860078051936527  0.8856048856424944
  0.0119484270479241  0.7946282418528355  0.7922453260208229
  0.4543845103379718  0.1719902663482471  0.8861690407215496
  0.6583638491169062  0.2609411044766295  0.8596051201376200
  0.8621519093760552  0.1470227464381540  0.8889110880005687
  0.3321704336315254  0.3652861496165244  0.7733294700300142
  0.5467310429457245  0.2444564783606092  0.5279630696935780
  0.3805708326505622  0.7319939460865597  0.3822193762657745
  0.5088439728317419  0.8073225802208143  0.6528985897160259
  0.4894138488593587  0.7657601304918399  0.5404470701758675
  0.5545028371650390  0.4335741513493732  0.5157321657347853
  0.0197657168376801  0.4871912594884618  0.7376053172150029
  0.5509284999122587  0.6077134055259920  0.8051661936445692
  -0.1027457559155398  0.0009574624503368  0.3720590225247218
  0.5063241116193710  0.9143086121202013  0.8872295219662525
  0.2938790743344820  0.2909222066368980  0.8643965916809481
  0.3800553593100022  0.0564143897641204  0.8165952584442319
  -0.0181215104957430  0.8674802692684604  0.6007434051114259
  -0.0513574559506413  0.4427364157639934  0.3766587992214832
  0.4324736572332417  0.5758170911227640  0.5384210838583855
  -0.0149226524523563  0.3070262071632013  0.6681910241746275
  0.6465362796505982  0.4536205837329391  0.7634722386031052
  0.5621525658106937  0.6340265708758117  0.6914830258526478
  0.3584599291561733  0.1567233425847388  0.6373392314213396
  0.1631339316414719  0.5458764704042995  0.6444677306786869
  0.8479803162119706  0.0476389650776900  0.4989235582793049
  0.7463253208609527  0.7146374338750545  0.7898121516754186
  -0.0654283139816327  0.6490104491428323  0.6988671086765211
  0.0976369576262571  0.3915135521341382  0.5086233216213611
  0.8109069577072242  0.2242074233532128  0.7457758696931877
  0.2223463158727033  0.7103584995849839  0.7792976813338099
  0.8648222008954155  0.7407277092905589  0.5474260990756478
  0.6557896118008898  0.0953284822274505  0.3914134446613268
  0.2056724075606332  0.4515794285761366  0.8888828779761618
  0.8025713727812341  0.5899341990648568  0.8805734719956315
  0.8759020092488060  0.3793554537888906  0.7900531846680250
  0.5680089068050058  0.2586095486737377  0.7625066679244985
  0.2106205224458938  0.5294011195823995  0.7938189253658666
  0.5356323826037541  0.0658598119223186  0.7447022462727045
  0.5911119123807740  0.7417079514149603  0.8784267816510590
  0.1048131216928464  0.1361295811536234  0.8796415884055008
  -0.2711689986322157  0.4498755290028590  0.5870789609308361
  -0.0101681821543138  0.1180910930418433  0.5923079956456829
  -0.0910920297214062  0.3263672030821191  0.5598353250809646
  0.1880418232599963  0.2396169478996704  0.7219711509052569
  0.6026488282338176  0.2082747141131822  0.6284821512994490
  0.2609373099063824  0.2430357297404566  0.5396323436587679
  0.2004188195823346  0.5632560280885931  0.5374791054309148
  0.4119299081385817  0.5289825728291156  0.6398566842554246
  0.3117132015687359  0.7420902702412485  0.8773217273630791
  0.1285767660516619  0.8486122967931764  0.9111195734852221
  0.1037904995599002  0.7374714321603322  0.6442782936577922
  0.9162783115899554  0.8122989005848082  0.8796967608725533
  0.1607346814458717  0.1119834870594427  0.4601800342730875
  0.0117013617654275  0.1550382516369168  0.3851853398613242
  0.5878865382051781  0.4014526990805601  0.6685096044159150
  0.2877531956880430  0.8094573944177277  0.6910047605794608
  0.8779963690697403  0.6283813182186728  0.3856457680668920
  0.7935446853976167  0.1078592454139937  0.6453816801359215
  0.0705865955242866  0.9220659903574593  0.6970919844891158
  0.0273873633827870  0.6488199144201545  0.4806782075262494
  0.7354471894593321  0.4988068922417939  0.4465505871106622
  -0.0816868027419257  0.0717102734641983  0.7392392528886493
  0.7845376739607526  0.2131567846884599  0.4829860610191808
  0.1248458009338043  -0.0433615243751611  0.5086020413039116
  0.1792641971672996  0.0353533172556755  0.6145584813765279
  0.6342894381750614  0.4446590598213932  0.8815518661206377
  0.7254858831484123  0.6436679558950203  0.6203384702890030
  0.3566791587681387  -0.0923570091961964  0.4926240927220741
  0.6453037157374891  0.9529874559900200  0.6797008857340912
  0.5097983403462429  0.8838218013191631  0.3725224410162904
  0.4504003967373230  0.0815952894021888  0.4482161845522243
  0.7294959317216672  -0.0916419489880013  0.4367216990768214
  0.2572427376425894  1.0164765237599491  0.9213527369990386
  0.7740550208490287  0.9832130155830372  0.8709180766506527
  0.2969141687828997  0.0042048496290465  0.3782742809088215
  0.6214017506627958  -0.3596949555617502  0.3994199685166932
  0.1337084132479363  0.7089158124607370  0.3881915878307888
  0.8075735106954083  0.2646418645752554  0.3839905438620063
