combine
1.000
11.0985002518  0.0000000000000000  0.0000000000000000
0.0000000000000000  14.4173002243  0.0000000000000000
0.0000000000000000  0.0000000000000000  26.7964000702
Pt  H  C  O  K  
96  170  6  81  4  
Direct
  0.4999999886561249  0.3333300219343480  0.0018699899937576
  0.1249999521128992  0.1666699702868031  0.0018699899937576
  0.2499999943280624  0.0000000000000000  0.0018699899937576
  0.3750000365432257  0.1666699702868031  0.0018699899937576
  0.4999999886561249  0.0000000000000000  0.0018699899937576
  0.6250000308712881  0.1666699702868031  0.0018699899937576
  0.7499999829841874  0.0000000000000000  0.0018699899937576
  0.8750000251993506  0.1666699702868031  0.0018699899937576
  0.0000000000000000  0.3333300219343480  0.0018699899937576
  0.1249999521128992  0.4999999922211510  0.0018699899937576
  0.2499999943280624  0.3333300219343480  0.0018699899937576
  0.3750000365432257  0.4999999922211510  0.0018699899937576
  0.0000000000000000  0.0000000000000000  0.0018699899937576
  0.6250000308712881  0.4999999922211510  0.0018699899937576
  0.7499999829841874  0.3333300219343480  0.0018699899937576
  0.8750000251993506  0.4999999922211510  0.0018699899937576
  0.0000000000000000  0.6666699625079541  0.0018699899937576
  0.1249999521128992  0.8333300141554991  0.0018699899937576
  0.2499999943280624  0.6666699625079541  0.0018699899937576
  0.3750000365432257  0.8333300141554991  0.0018699899937576
  0.4999999886561249  0.6666699625079541  0.0018699899937576
  0.6250000308712881  0.8333300141554991  0.0018699899937576
  0.7499999829841874  0.6666699625079541  0.0018699899937576
  0.8750000251993506  0.8333300141554991  0.0018699899937576
  0.0000000000000000  0.2222199683821562  0.0864100026098289
  0.3750000365432257  0.7222199606033073  0.0864100026098289
  0.6250000308712881  0.0555599860957249  0.0864100026098289
  0.4999999886561249  0.2222199683821562  0.0864100026098289
  0.1249999521128992  0.7222199606033073  0.0864100026098289
  0.2499999943280624  0.5555599783168760  0.0864100026098289
  0.3750000365432257  0.3888900080300730  0.0864100026098289
  0.0000000000000000  0.8888900002512240  0.0864100026098289
  0.8750000251993506  0.7222199606033073  0.0864100026098289
  0.7499999829841874  0.8888900002512240  0.0864100026098289
  0.4999999886561249  0.5555599783168760  0.0864100026098289
  0.6250000308712881  0.3888900080300730  0.0864100026098289
  0.4999999886561249  0.8888900002512240  0.0864100026098289
  0.6250000308712881  0.7222199606033073  0.0864100026098289
  0.8750000251993506  0.3888900080300730  0.0864100026098289
  0.7499999829841874  0.5555599783168760  0.0864100026098289
  0.2499999943280624  0.8888900002512240  0.0864100026098289
  0.7499999829841874  0.2222199683821562  0.0864100026098289
  0.8750000251993506  0.0555599860957249  0.0864100026098289
  0.3750000365432257  0.0555599860957249  0.0864100026098289
  0.2499999943280624  0.2222199683821562  0.0864100026098289
  0.0000000000000000  0.5555599783168760  0.0864100026098289
  0.1249999521128992  0.3888900080300730  0.0864100026098289
  0.1249999521128992  0.0555599860957249  0.0864100026098289
  0.2415388441033040  0.1160969902450143  0.1720963010896553
  0.8764942195070284  0.6134940454310644  0.1702799031043853
  0.6284179277077411  0.9523940097506485  0.1709246833418327
  0.8716285586452159  0.9495458441051284  0.1719177278862599
  0.3710812797280474  0.2804613756037894  0.1721503198681557
  0.1116456360217713  0.9520109049935810  0.1715949584367316
  -0.0009497379070015  0.4483281143307002  0.1720902999962406
  0.7417150895739191  0.7857873422657432  0.1702546167488217
  0.3759939018087791  0.9504163619902207  0.1738052971816687
  -0.0099574695042311  0.7823452787012792  0.1729558950291269
  0.7465016694445987  0.1153246729091214  0.1723709896888969
  0.3734447622351316  0.6172642490651945  0.1690860651330089
  0.1199049203953634  0.2861510687796131  0.1746652865361950
  0.7521402925900864  0.4427427936016308  0.1730273447124793
  0.8730370465620824  0.2775654512732668  0.1694821953845423
  0.4931182666245727  0.1160502842813787  0.1687769518462129
  0.2417426206180302  0.7834858187846636  0.1698637275072609
  0.4945290936592849  0.7837878184400957  0.1704814720646132
  0.5041607878769485  0.4423764059896771  0.1709829913233492
  -0.0034718880412469  0.1221101318909017  0.1755955730311979
  0.1226344615597281  0.6095905565999763  0.1717255930179003
  0.6178156320073905  0.6116349805796004  0.1680505825149217
  0.2480363663688284  0.4429546116225146  0.1715335352755723
  0.6237706105000279  0.2765954475081771  0.1724198246740655
  0.8713274343830023  0.5109997725359638  0.2552080890449610
  0.7413187069636391  0.0133449813492624  0.2634186834503146
  0.3755983302179881  0.1838915084761456  0.2595987684717412
  0.2459858121332407  0.0223597892937443  0.2596094910575829
  0.6181752601922305  0.8547112534863162  0.2602472555429327
  0.8582881810769956  0.8529914098252812  0.2613255087868127
  0.1145782118889225  0.8510169850954680  0.2611627879404089
  0.7405661107019373  0.6823739703025892  0.2559864325853380
  0.1245615661517680  0.1809098973817504  0.2671288795788820
  -0.0101693662962881  0.3463016578641311  0.2582296521723917
  0.3609617698977182  0.5160475646584680  0.2588737654807012
  0.4888028484767710  0.6796286961608126  0.2523311307148107
  0.2414368626847049  0.3469181331585153  0.2614289928254424
  0.4927511083862928  0.0141282650864607  0.2558638602811705
  0.2387001383606167  0.6788892940998059  0.2552598547894776
  0.0020596508970924  0.0181709451578490  0.2600460160224795
  -0.0088827798498280  0.6868564078321259  0.2612429354712105
  0.7456057654508689  0.3461123589137354  0.2637135381912238
  0.4936441907014815  0.3481363856764449  0.2599088394692720
  0.8708201716833337  0.1805177264404482  0.2592445029332685
  0.3675909763968637  0.8499778670798253  0.2598591275939264
  0.6201444945846389  0.1850249621495634  0.2618267089019333
  0.6134515590604944  0.5109282994665286  0.2531560584939934
  0.1066467316165566  0.5149708138827690  0.2594156164294093
  0.2253536561747938  0.3340114781464785  0.3435245307013098
  0.2804994885678451  0.2043123487596665  0.4079157579922793
  0.4345368375801796  0.2629294035516314  0.3485755319009269
  0.4120609326884765  0.4754450516225420  0.3512267016779823
  0.5784511032523324  0.3801309076967697  0.3763425835142314
  0.5371345955894498  0.3787281975925635  0.4359989829228131
  0.5045181059929126  0.2197658595580669  0.4045393926050266
  0.3125553011666959  0.2806655630004726  0.4515557098117952
  0.1382530683865276  0.3233020404155669  0.3996502974856529
  0.4277953205371121  0.5156678492252850  0.4122047545141596
  0.5418512550940986  0.7106254136285379  0.4916788783748616
  0.6695727481192577  0.7187819805148816  0.5119592117695086
  0.1098908839148962  0.8897290453020867  0.4379344782044229
  0.0422040239827929  0.9261787936339049  0.3895098752278816
  0.7378651856021575  0.8735501480833929  0.7970074972626948
  0.6620701753021336  0.8604039246538118  0.7453145420384424
  0.5315703247421356  0.4695388387549984  0.8881111336207326
  0.4141535457779102  0.5033504699769367  0.9023941427711158
  0.2225540768176676  -0.0863698687290435  0.7373555137233972
  0.2151830586761189  0.0214574794786186  0.7456563271803274
  -0.1328145938962279  0.4843040396378381  0.8754368799855328
  -0.1120817347909915  0.4202362315371819  0.9189995700984547
  0.1042919973905730  0.7492068802586405  0.7710813822293325
  0.0507715472915911  0.8472811866684351  0.7728322496211123
  0.3679204848094447  -0.1729920056874653  0.4989305630821705
  0.5588135093292569  0.1320265879038680  0.8870448362701502
  0.4614521508047347  0.0897203707196022  0.9235945274911430
  0.6858623022029888  0.2388461380304781  0.8770155968650082
  0.7378209894054759  0.1397324816129237  0.8700000556427727
  0.3621146077325352  0.3854923836040076  0.7663603919556917
  0.3364292639804578  0.3037174252790870  0.7975051729790247
  0.6030891246332529  0.2021969517487479  0.5604021325200315
  0.6650275486999201  0.2149669843162662  0.5088879963978767
  0.4622694608731405  0.7839581172104482  0.3784820191529669
  0.4069951324700298  0.7190630010552717  0.3377018551631312
  0.4847219557460027  0.7148633099232283  0.6502046129388886
  0.5013169953929252  0.8235771825981035  0.6304127891002158
  0.4284992826871992  0.7454541286853044  0.5733818152643115
  0.3429835312642922  0.6926692499451553  0.5425112659355625
  0.6453077226662625  0.4678781004248328  0.5401979745815894
  0.5386199659571557  0.3900608461091433  0.5240138696807864
  0.0140139196622332  0.3677416851848501  0.7165557023815807
  0.1075240941681698  0.4420941613851609  0.7012645793454056
  0.6445835599850303  0.5817843503364548  0.7788066755843236
  0.5124810868997848  0.5485926383546622  0.7896941961257283
  -0.0524796757747099  0.0575974712519603  0.3851965605476557
  -0.1146253813702148  0.0060098678845544  0.3447867281984137
  0.5238816232271574  0.8554369926009365  0.9109371579373428
  0.3607462247298374  0.1913214667716282  0.8717196707880640
  0.2130094637621495  0.1862624224384135  0.8627671170916149
  0.3203881990022301  -0.0360614560154408  0.7953533209709587
  0.4088519002433745  0.0111559132845768  0.8369433940472067
  0.0185048849430527  0.8469711474426121  0.5293196921019897
  0.0334238811086063  0.8302152530628286  0.5853010962148596
  -0.0412120657767087  0.4857662317453777  0.3455454167404096
  0.0448477242336661  0.4915145573271892  0.3906435734007860
  0.2529722552508525  0.5574799652956687  0.5224263164725736
  0.3901554621938870  0.5157994842589234  0.5264107449861163
  -0.0420349841163753  0.2215781371338617  0.6651549007704812
  -0.0778029445518961  0.2161984747911663  0.7273919430795587
  0.6794853956395528  0.3264717221582677  0.7508747744580836
  0.6996529618441577  0.4352350393816305  0.7536360714534320
  0.5453796262984556  0.6140873966942629  0.7132258926882545
  0.5312380469914186  0.5557506970199079  0.6620109612159406
  0.2837941702518924  0.1538696246930454  0.6571784900906864
  0.4008435855266553  0.1309884433090310  0.6334004488004094
  0.1967601280763887  0.5488957586498637  0.6547260308152674
  0.1974902837204980  0.4663590590676245  0.6140988017491255
  0.6807261793209125  -0.0695183462719812  0.6574016196896002
  -0.2043318344775640  -0.0332896653418551  0.5016486730972916
  0.7526328454013650  0.6569211905802457  0.8351085631157685
  0.7313169712532671  0.7153266835712807  0.7856153924724888
  0.9012992041494670  0.6292473763020686  0.7600650664321861
  -0.0608734209552708  0.5274617498068521  0.7349038551562803
  0.2308672390383952  0.4105304916050863  0.5327507930132740
  0.2425235777837152  0.2980961423662569  0.5309241921388366
  0.7964623415462253  0.2051371969430980  0.7953222073289091
  0.9360103203056811  0.2090383252906372  0.7972750059833147
  0.2710385556834249  0.7159176089017834  0.8169867724413551
  0.2439905016590703  0.6208303128704932  0.7910324606502934
  0.5051525732128289  0.0941787068990529  0.4978084512230690
  0.8590145056809612  0.7497983431308382  0.5667858662361971
  0.7761124911001374  0.6732298849711483  0.5915386365882725
  0.7551706476774367  0.0441153965933231  0.4054611317093575
  0.6685528360731986  0.0833298974918399  0.3674671839166382
  0.2513163183960491  0.3398854914071070  0.8812009612238842
  0.1929760784978712  0.4254428674629206  0.9052638160032871
  1.1208259840587480  0.5772513182164850  0.9133765629629713
  1.1072911923218522  0.5015345180724413  0.8711625180301977
  1.0669824143473288  0.3444237657914970  0.8106290484167217
  0.4953126711429715  0.2613665151779800  0.7581859824967289
  0.5978127069757859  0.2175746157531586  0.7916902927267595
  0.2711178499376065  0.4814259762449386  0.8149819584790593
  0.1779695328816751  0.4759394622881384  0.7720621515017403
  0.5300012178263453  0.1155984111568238  0.6978252668422873
  0.4684358923501231  0.0520793595623730  0.7355548758215300
  0.6634196520296374  0.5705731058811604  0.8940055078607878
  0.7586169396657435  0.6186698296652187  0.9263806283369438
  0.0247723521973530  0.0893119458891284  0.8794092313506841
  0.0812021553320987  0.1502330086564569  0.9196161798765111
  0.7708668839388853  0.4093373074906981  0.6024829182989393
  0.0154772421771258  0.1567079877335145  0.5883064040767002
  -0.0654442410254665  0.2483331970548483  0.5794528554254456
  -0.1037140262364110  0.3822206529702446  0.5398756402315509
  0.0280317134785435  0.3364998216394949  0.5252497991718090
  0.2306769284511916  0.2356050787771483  0.7348333700577203
  0.1234352074081195  0.1963437043454813  0.7110451933201708
  0.6829476253488118  0.1427185748432941  0.6387278569047075
  0.6496227084673606  0.2419812781327710  0.6309142480150252
  0.4108705862902903  0.2000212577691546  0.5210501653364735
  0.3224349776285869  0.1895243964951605  0.5685542596053011
  0.0724585573144961  0.5970783276740673  0.4886484150742966
  0.1070031399249096  0.6793704534425452  0.5251963294558678
  0.4950117653427073  0.4624954952981668  0.6142258829425349
  0.3878935109815213  0.4762963096881342  0.6503046830338631
  0.4320523459484812  0.7484691787934192  0.8739241471709082
  0.3824842330846934  0.6461872481921164  0.8815892103085652
  0.1011824775350049  0.7852123624449007  0.8888115904227966
  0.2453414403949205  0.7926405609102067  0.8983658122708542
  0.2089493114282618  0.7000882549624551  0.6922545164725012
  0.0769752599286056  0.6452571962551110  0.6990126852797133
  0.9992844034941827  0.6695713014860727  0.8679348519081284
  0.2792238796135899  0.1152063195368913  0.4702829173988349
  0.1709044053310151  0.0409370765065452  0.4698848800814319
  0.0860346452166037  0.1761246652698659  0.3549076290578393
  0.0920296259969311  0.1378107239766846  0.4114346602273920
  0.7480754536770375  0.3473441638580527  0.6800030808639885
  0.6389463194768047  0.3715404374580178  0.6511993656045515
  0.3557468546400813  0.8040623557426713  0.6876225219517883
  0.3245479886902569  0.7640224364568794  0.7378094566436453
  0.9405820911169462  0.8058680712230302  0.3745418689640087
  0.8894056594627792  0.7357902226118797  0.3394924957892712
  0.8692027188660408  0.0075842261795800  0.6689745044758993
  0.8642500844422064  0.0915737129670615  0.6296406186465058
  0.1956683247403447  0.0412409209109654  0.9078163971343647
  0.2136559966573339  0.9257737217057946  0.9068692486878006
  0.7119502002100229  -0.1390760558429970  0.8777932959009013
  -0.1560219720605187  0.5992831512267059  0.6781375939937730
  0.0187627207078026  0.9050546405010816  0.6725243282488987
  0.1078291449699168  0.8224337065628183  0.6573934952699235
  0.8787731287764046  0.6591826180939108  0.5144189322255150
  0.8416677258069168  0.4626740063272749  0.4392885106044822
  0.7896695782728477  0.3937181655780913  0.4761692936317160
  -0.1355840595089367  -0.0890982081537647  0.7354681541688486
  -0.0328099024857834  -0.0053209268383481  0.7417931200954652
  0.8529635307675616  0.2476192416096637  0.4987738375112357
  0.8114336304348345  0.1441649931376743  0.4886939994810378
  0.2094275866257723  -0.0913754853893918  0.4957667123343873
  0.1177088287210809  -0.0343017723086925  0.5286698814910725
  0.1752422299476512  0.0732803922137438  0.6058268437652430
  0.1117523433041186  -0.0222789970662205  0.6152160916097621
  0.7202604029227760  0.4095094523209637  0.8790981956340145
  0.6491588241511742  0.3728912905856494  0.9210712359996417
  0.8380418894608327  -0.0035685655982445  0.8889977471336582
  0.8608743418418562  0.0789768397262660  0.9254564010140526
  0.7868869235177610  0.0172901218967370  0.5546325887494138
  0.9681243989391608  0.3281645149294736  0.8503938923811538
  0.7997899328839839  0.5142287167818176  0.5909817419173128
  0.9870364436963753  0.7480482994536263  0.8273079461689996
  0.7083553798203464  0.6104220838632981  0.6641185151318416
  -0.1168593948438802  0.6788146843474067  0.4568985448614635
  0.4160738957095637  -0.0759361524742858  0.4832514060685671
  0.4857930365794759  0.8962802647280931  0.8609425836702629
  0.5671931931685141  -0.0315701377455431  0.6891301102805998
  -0.4324489435427631  0.9139606100170375  0.3468885050845795
  -0.3873975755059955  0.8902348208069701  0.4007540256999846
  0.5461050542677611  0.0509516430796020  0.4443930218127662
  0.7877550371800947  0.8494218457668690  0.4202958047758368
  0.6834728634321334  0.8348144317764854  0.4615950299292453
  0.8445353648192092  0.8339757324144773  0.8660441667426856
  0.2346996219221187  0.3394630661398760  0.3883054315632308
  0.3214863896787608  0.2716918466813841  0.4119087727860460
  0.2734490601293442  0.4356415835201871  0.3932063051826707
  0.4434600104281452  0.2769559417351919  0.3902194083722664
  0.4065188868890881  0.4510032804158868  0.3906905474941978
  0.4963148904651900  0.3695291176860174  0.4001867422230930
  0.2026251869963488  0.5034818464878321  0.3986981454266764
  0.6231164123619667  0.7350310608042098  0.4818516773176252
  0.0975633510324412  0.8775387798802864  0.4010713614158913
  0.7379871251227500  0.8491163199519473  0.7636233437847488
  0.4776979683124433  0.5238522361607196  0.8796597653060816
  0.1932709231368546  -0.0385665982222408  0.7600480464295438
  -0.1273431905424142  0.4157843154570952  0.8823868815720186
  0.0270558403466540  0.7843938878819510  0.7697873071442779
  0.4738237007155194  0.1099160324641808  0.8902486255730079
  0.6772097677774996  0.1855977698785778  0.8555812840582390
  0.8610081645445911  0.0638272846152567  0.8895579578955767
  0.3658638147295122  0.3168024310891231  0.7645160408387311
  0.5869007355064554  0.2211195763633190  0.5248280322751218
  0.4348582513405138  0.7185663900609378  0.3717825064710509
  0.4442763698185530  0.7714128209839639  0.6366455076990747
  0.4160106075098913  0.7273249274525062  0.5383218717070130
  0.5562224410004225  0.4497027605052035  0.5405176370279463
  0.0541587992217700  0.4216104848503373  0.7305774665295883
  0.5757263973358645  0.5511848254367492  0.7639831609532766
  -0.1121803414112709  0.0041481751832565  0.3802981851630468
  0.5336389882803715  0.8418732642011907  0.8746123140198764
  0.2885609375177146  0.2254363753708823  0.8609413455972413
  0.4034690720553667  -0.0342985009403180  0.8088519434819078
  0.0177754784181767  0.7921715330204633  0.5548621702485660
  -0.0399657999672579  0.4817358411385385  0.3809501021949703
  0.3049970953824148  0.5030481971150139  0.5309506756178913
  -0.0231516785124483  0.2368142458631342  0.6999503899651999
  0.7425227077112027  0.3796742861797325  0.7447751984937074
  0.5378083542082134  0.6195296426542765  0.6759262171131190
  0.3165012385281784  0.1359778343171170  0.6248133545789024
  0.2247332325009841  0.4854428291022018  0.6476229996505823
  0.8304985471622710  0.0176673540147748  0.5226038153189687
  0.7583244088709208  0.6563341721878747  0.7976069195081427
  -0.0634218085444329  0.5932039064696139  0.7306145841124499
  0.1842401020776089  0.3474922006656933  0.5390300749451452
  0.8723138424698269  0.1788624683804282  0.7793531489487173
  0.2445918551166167  0.6898242317821246  0.7846846105340696
  0.7783053372998797  0.7131909192866401  0.5614306824195625
  0.6776157007682450  0.0770605997319406  0.4023082886080951
  0.2394362394206384  0.4084601165254518  0.8757264026482664
  1.0951456343237671  0.5684793591234197  0.8786056540364333
  1.0177169576734577  0.2941963797113019  0.8279495673365802
  0.5805574950683084  0.2318439981478773  0.7566185561562515
  0.2555555193360472  0.5082850671271084  0.7812075508224698
  0.4897857150040056  0.0541135882073843  0.7010825657619681
  0.7507367597751483  0.5906296971015210  0.8935368054990116
  0.1020923788794106  0.1191489046683429  0.8905845210394294
  -0.2027597445010673  0.4514767978840528  0.5726030233465416
  -0.0489517916271513  0.1945969650872147  0.6039073729756871
  -0.0580255135999618  0.3231490244094022  0.5297639570953774
  0.2106767307790782  0.1778447083441027  0.7179803741509224
  0.6145573284637080  0.1810352231550845  0.6263866630117351
  0.3293277809771829  0.1922610070454146  0.5319140194003537
  0.1463767659631779  0.6324085077893067  0.5054686936609432
  0.4755705857684666  0.4629990139588773  0.6484192330716428
  0.3587015195277702  0.7082183505889884  0.8696227398214865
  0.1660588592139820  0.8215767600258255  0.9070743556158058
  0.1431296735018199  0.6683175010644423  0.6748385355244113
  0.9826896227651261  0.7382331555294197  0.8634953132653128
  0.2107408592003831  0.0902831590276603  0.4501549109059099
  0.0389180739559786  0.1612933605822102  0.3861214621626141
  0.7155276388638230  0.3385317929062528  0.6462058708646067
  0.2857001435203589  0.8019683635298215  0.7110007745289570
  0.8831738418810493  0.7549768516822631  0.3749952707145486
  0.8200609338206655  0.0337181779762516  0.6392902998321349
  0.0798205943416835  0.8831700854671090  0.6468450056982087
  -0.0966530009697504  0.6328089019761650  0.4812760926697026
  0.7651278446944009  0.4335413721748643  0.4485128743157437
  -0.0713045703604549  -0.0491264919562559  0.7180418026859379
  0.8078135872408468  0.2104819555803720  0.4749891685135227
  0.1238487120705405  -0.0722134575407685  0.4988860494573226
  0.1033035408558065  0.0395092741663189  0.5945685232292879
  0.6387896852144666  0.3860908688936083  0.8848298063801461
  0.7872217477206437  0.6037855685510392  0.6471392980053597
  0.3567715135977774  -0.1237306749840268  0.4733724712599174
  0.6045232719269306  0.9079520693504575  0.6762994574951776
  0.5407249777488354  0.8884826502613764  0.3791016121115921
  0.4879681973626713  0.0417612879133363  0.4717519667598264
  0.7333544663730545  -0.1198342266944007  0.4437565423470425
  0.2540434248440659  0.9892781741244828  0.9119774189323634
  0.7862506680472209  0.8849997023155908  0.8646197278292492
  0.3258853670173505  -0.0266467810355009  0.3816681654702458
  0.6578512813400952  -0.3809907213794387  0.3806603136942890
  0.1876567480243304  0.6955872899141844  0.3796100917045339
  0.8153132215528341  0.2830721678474411  0.3799126900303820
