combine
1.000
11.0985002518  0.0000000000000000  0.0000000000000000
0.0000000000000000  14.4173002243  0.0000000000000000
0.0000000000000000  0.0000000000000000  26.7964000702
Pt  H  C  O  K  
96  170  6  81  4  
Direct
  0.4999999886561249  0.3333300219343480  0.0018699899937576
  0.1249999521128992  0.1666699702868031  0.0018699899937576
  0.2499999943280624  0.0000000000000000  0.0018699899937576
  0.3750000365432257  0.1666699702868031  0.0018699899937576
  0.4999999886561249  0.0000000000000000  0.0018699899937576
  0.6250000308712881  0.1666699702868031  0.0018699899937576
  0.7499999829841874  0.0000000000000000  0.0018699899937576
  0.8750000251993506  0.1666699702868031  0.0018699899937576
  0.0000000000000000  0.3333300219343480  0.0018699899937576
  0.1249999521128992  0.4999999922211510  0.0018699899937576
  0.2499999943280624  0.3333300219343480  0.0018699899937576
  0.3750000365432257  0.4999999922211510  0.0018699899937576
  0.0000000000000000  0.0000000000000000  0.0018699899937576
  0.6250000308712881  0.4999999922211510  0.0018699899937576
  0.7499999829841874  0.3333300219343480  0.0018699899937576
  0.8750000251993506  0.4999999922211510  0.0018699899937576
  0.0000000000000000  0.6666699625079541  0.0018699899937576
  0.1249999521128992  0.8333300141554991  0.0018699899937576
  0.2499999943280624  0.6666699625079541  0.0018699899937576
  0.3750000365432257  0.8333300141554991  0.0018699899937576
  0.4999999886561249  0.6666699625079541  0.0018699899937576
  0.6250000308712881  0.8333300141554991  0.0018699899937576
  0.7499999829841874  0.6666699625079541  0.0018699899937576
  0.8750000251993506  0.8333300141554991  0.0018699899937576
  0.0000000000000000  0.2222199683821562  0.0864100026098289
  0.3750000365432257  0.7222199606033073  0.0864100026098289
  0.6250000308712881  0.0555599860957249  0.0864100026098289
  0.4999999886561249  0.2222199683821562  0.0864100026098289
  0.1249999521128992  0.7222199606033073  0.0864100026098289
  0.2499999943280624  0.5555599783168760  0.0864100026098289
  0.3750000365432257  0.3888900080300730  0.0864100026098289
  0.0000000000000000  0.8888900002512240  0.0864100026098289
  0.8750000251993506  0.7222199606033073  0.0864100026098289
  0.7499999829841874  0.8888900002512240  0.0864100026098289
  0.4999999886561249  0.5555599783168760  0.0864100026098289
  0.6250000308712881  0.3888900080300730  0.0864100026098289
  0.4999999886561249  0.8888900002512240  0.0864100026098289
  0.6250000308712881  0.7222199606033073  0.0864100026098289
  0.8750000251993506  0.3888900080300730  0.0864100026098289
  0.7499999829841874  0.5555599783168760  0.0864100026098289
  0.2499999943280624  0.8888900002512240  0.0864100026098289
  0.7499999829841874  0.2222199683821562  0.0864100026098289
  0.8750000251993506  0.0555599860957249  0.0864100026098289
  0.3750000365432257  0.0555599860957249  0.0864100026098289
  0.2499999943280624  0.2222199683821562  0.0864100026098289
  0.0000000000000000  0.5555599783168760  0.0864100026098289
  0.1249999521128992  0.3888900080300730  0.0864100026098289
  0.1249999521128992  0.0555599860957249  0.0864100026098289
  0.2558009580203918  0.1184085874429299  0.1741661284416391
  0.8649815422081946  0.6151837637847781  0.1691471702215920
  0.6280991497359674  0.9472028311641156  0.1688619004137084
  0.8672549040793994  0.9451264045631393  0.1721029698660407
  0.3801680241540470  0.2853917418855564  0.1743714961696019
  0.1163505222510194  0.9496237479694113  0.1691987463249634
  -0.0012816140268766  0.4476170537617650  0.1740030655157030
  0.7493048942582355  0.7812114754201042  0.1742683610211208
  0.3765396434101290  0.9436172574578215  0.1693300380914239
  -0.0051809069329592  0.7830371949369687  0.1737144245572259
  0.7482545081578155  0.1166975305518193  0.1711523746131982
  0.3698156970383752  0.6168444646460701  0.1709724802509938
  0.1317233879742353  0.2804389295497456  0.1717546578884784
  0.7439228731972987  0.4503965839010111  0.1754261726009868
  0.8683354213229842  0.2777472842766179  0.1714275438964110
  0.5056039584258164  0.1161101894429945  0.1734512643162410
  0.2428960578491483  0.7797238080159218  0.1692909704331841
  0.5011607836471338  0.7788901891404723  0.1720380244929517
  0.4965499919960996  0.4514721084415810  0.1683110711171860
  0.0025171472060353  0.1164814032567278  0.1702744415200077
  0.1166883869908424  0.6138093989250798  0.1729939410202798
  0.6161209596216374  0.6166431172401872  0.1741293538563433
  0.2455362097917721  0.4464044722639799  0.1705247508967310
  0.6200668737097049  0.2842666174900292  0.1736717257059995
  0.8713595387297084  0.5158776319622015  0.2574455206642431
  0.7386300554951526  0.0185305781001707  0.2628529574998030
  0.3800109728623901  0.1880531019483322  0.2585116302060159
  0.2538573759768178  0.0223469134988928  0.2601671748382717
  0.6140071978909750  0.8490153557646616  0.2594589654425961
  0.8626542797480427  0.8504305609960551  0.2644682039167325
  0.1195753345759274  0.8608778541200570  0.2619405766226721
  0.7469497146207201  0.6787408467853502  0.2563088391652281
  0.1177224186743699  0.1776489548426779  0.2595776622336451
  -0.0042649411835913  0.3404831526242521  0.2570553887632187
  0.3730084206583303  0.5140225281366655  0.2590786844245002
  0.4960480781903044  0.6744315314882127  0.2597227557458264
  0.2465096131485227  0.3471267504414468  0.2575568427184066
  0.5018702138243077  0.0154237555673012  0.2544354355114356
  0.2444193965630667  0.6834785970948618  0.2566943648803591
  -0.0054226452434633  0.0203562346995690  0.2551903317231284
  -0.0046249663049451  0.6847869276148996  0.2571650021289060
  0.7478751922228253  0.3449115591848916  0.2581524715774394
  0.4993952311891048  0.3453633118985531  0.2581361671037468
  0.8683983441399555  0.1767919771694811  0.2558140117755316
  0.3734536901711367  0.8466968502899916  0.2569916619306767
  0.6202736287980447  0.1806353199616778  0.2625906903414688
  0.6160150327600499  0.5085860128126735  0.2595458976235568
  0.1246081844414704  0.5130310199223947  0.2612409929229629
  0.3046420759914515  0.3560869346500177  0.3495462970757957
  0.4096460875930185  0.2336334815808792  0.3962004044568200
  0.5347980873305259  0.3266895113178988  0.3430236738487161
  0.4246866690060726  0.5321432928038023  0.3408169929757224
  0.6258091775664503  0.4885408704209722  0.3690656937682520
  0.5896296170591757  0.4715607776163996  0.4319738142203967
  0.6118044748162033  0.3081030667248710  0.3983042253899421
  0.4273088896701015  0.3129503925495916  0.4481262081936954
  0.2298071955610712  0.3310666801718590  0.4052603619982804
  0.4387737793410607  0.5799229081813717  0.4000925364083796
  0.5397492575925699  0.6683554927266453  0.5106966047994916
  0.6713484415961132  0.6383270064660688  0.5100136283007062
  0.0177545402288063  0.8542923181304567  0.4422207743785024
  -0.0363118363523611  0.9013553290231875  0.3965705093057556
  0.7247784680092608  0.8161698200656925  0.7970486045456550
  0.6921246992857594  0.8102236515552035  0.7381531506986628
  0.6013725563791855  0.4701533098183858  0.8828120479813181
  0.4727688226748489  0.5200812226038012  0.8812780733544162
  0.2583569614493595  -0.0678189667821441  0.7289519424559856
  0.2354721509220266  0.0337608808672522  0.7425876817098694
  -0.0637557079466876  0.4609858206946432  0.8697057004727000
  -0.0672427296813336  0.3834084919646172  0.9132952208239419
  0.1186775935592181  0.7409345391583988  0.7889650617775019
  0.0767539847162542  0.8478832250088292  0.7785527730756965
  0.3676580698584221  -0.2085040149981307  0.5049725797215643
  0.5612714760798164  0.0899715848820080  0.9006983506990108
  0.4362685029100861  0.1039332993409141  0.9290529641735638
  0.6240336681054487  0.2732658092504477  0.8502974757545461
  0.6304992481723015  0.1689896136305431  0.8357665755298915
  0.2892971644145582  0.4155069590770664  0.7123408470948960
  0.3071154149901643  0.4376104976482396  0.7712280316221504
  0.5616057067610652  0.1359986178199462  0.5726783405680607
  0.6153027482152333  0.1661626720141575  0.5174114333111058
  0.3752756416367611  0.8185328946822964  0.3874677227575259
  0.4423388286181991  0.8265276879727717  0.3365418848492618
  0.4924068781828128  0.6895377778874461  0.6627478028830404
  0.5101202828897340  0.8020143152190903  0.6612709276387417
  0.4132667250654988  0.7227367229987690  0.5824835469880154
  0.3490149793591952  0.6485357528894752  0.5457981280129036
  0.5555130487202607  0.5033075275542662  0.5143293464306429
  0.5713396591374216  0.3970557623369419  0.5209818719651548
  -0.1229875270110141  0.3496000416156084  0.7538687707109318
  -0.0147703172033008  0.3054281888420479  0.7338622733196575
  0.7245658866562428  0.5641875893373048  0.7838882345490830
  0.5946828768084742  0.5237886297028022  0.8027188085246205
  0.0088542524368608  0.0639436915273616  0.3791992067397194
  -0.0448534489711134  -0.0012684947330968  0.3401634176538836
  0.5203109437478671  0.8473529669867956  0.9264352253087821
  0.4014580297529277  0.2332658031794081  0.8859462698611221
  0.2559502159978137  0.2512588777609284  0.8860021371155322
  0.3481409723330272  -0.0238060860882617  0.8080399903970530
  0.4224653751158461  0.0358299833438532  0.8471985910318797
  0.0515844948516488  0.7861028167186046  0.5908365514144912
  0.0784189213095567  0.6820537165707415  0.6000148777738411
  0.0155090814519812  0.4359183811340200  0.3363736581476082
  0.0874475223931805  0.4545844108423017  0.3878410951647817
  0.2122618947562693  0.5723561671062205  0.5013830480737305
  0.3267986541525520  0.5009821506127848  0.5123744244499752
  -0.0177348651740650  0.1946720824034356  0.6709489391559830
  -0.0434929328060981  0.1557213159309794  0.7240749497197361
  0.6825255160823601  0.3033129361993513  0.7794571345472566
  0.6864440804661333  0.4127127133533005  0.7601709716579839
  0.5600076675667944  0.5746974556120328  0.7124963889508573
  0.4999440143275304  0.5360273975480190  0.6616798601286020
  0.2893526187719971  0.0948893695779594  0.6497180943257225
  0.4101353960109841  0.0978498401331928  0.6134328743091241
  0.2005458859668015  0.4990333344223137  0.6561004879141132
  0.1407363844629975  0.4097271719807589  0.6409901927909155
  0.6892778175555115  -0.1036484992371416  0.6622378784019831
  -0.0302000026035626  -0.0046925658582021  0.5398782411480851
  0.8940303324398038  0.6369604342095797  0.8100895412194069
  0.8079984726175595  0.6907748406954980  0.7747156860218148
  0.9035982937310402  0.5548299682569995  0.7370415345105941
  -0.0191456039536097  0.4742354588812737  0.7207387412265879
  0.1546610038434346  0.4114576490057119  0.4935423740895540
  0.1886166529897127  0.3068766029331135  0.4959635655119105
  0.8296231723026432  0.0651425184041765  0.8169477458707239
  0.9610518568371530  0.0496648723450417  0.8235424048188310
  0.2857322594632263  0.7049950087373933  0.8151539707115952
  0.2146894406218136  0.6097971893990201  0.7984196548958420
  0.5385185323062606  0.0232745587162310  0.5103887512005609
  0.9202155240608848  0.6705973544620014  0.5469121422432404
  0.8011790452460347  0.6416587728198718  0.5790208644053954
  0.8177808192082523  0.0931115245999657  0.3781345982876412
  0.7181068223796641  0.1531442321204212  0.3491176953169805
  0.3233254881098024  0.3898437765988113  0.8925824602013969
  0.2915251886645905  0.4800736850394645  0.9182309929595088
  0.9138829259435309  0.5864152492122007  0.9164682558875046
  0.8202787193723312  0.6120600977447179  0.8825877128697266
  1.1278772712709377  0.2540038759911308  0.8218003308992856
  0.3852466001346944  0.3004459999452021  0.7701000657602878
  0.4753621029421834  0.2234889374551013  0.7984428722048226
  0.2077640281736287  0.4862255041956274  0.8475162328896553
  0.0973011853493320  0.4679965616882752  0.8049587272802279
  0.5160451514492798  0.0586532878932995  0.7371015885027641
  0.5285733783849370  -0.0071699786223338  0.7793838842750238
  0.6902939682014667  0.6955931241757098  0.9155168633559252
  0.6348010594816500  0.6374937860216645  0.8786466094818337
  -0.0005882183314760  0.0788009900067931  0.9183710248477539
  0.0427323713961336  0.1386973271132729  0.8735929429838999
  0.7494719571458269  0.3662484457527050  0.6083339241127524
  0.0137532538664622  0.1471396263306293  0.5944143305732156
  -0.0117706347647118  0.2568752954424803  0.5993680655395636
  -0.0726750503762150  0.3698785605859792  0.5791319899704787
  0.0471052784465370  0.3540986781488675  0.5400090767562569
  0.2921954575505865  0.1762282244644982  0.7383522883248372
  0.1754679643480801  0.1659431482093701  0.7042941083077784
  0.6296489930219744  0.0701621789144031  0.6336316769610491
  0.6020458837144521  0.1729835380688334  0.6452885524175167
  0.3690413861130223  0.2300799552338556  0.5246606301805027
  0.2605677082839168  0.1955976885358173  0.5557637764619644
  0.0410769917517514  0.6183461720228444  0.4706657335149224
  0.0960334107508931  0.6936565418984718  0.5066964109294499
  0.4654996118743251  0.4461343981974471  0.6005205384620120
  0.3863398532792381  0.4226061203838061  0.6461986412890111
  0.3844368059916936  0.7533676293078205  0.8905366898458124
  0.3434588374930905  0.6657513504034717  0.9222092203229133
  0.0683646954800892  0.8289072546992921  0.9010828686033938
  0.2001493636349408  0.7858615511594581  0.9057596212258242
  0.1890893008503234  0.6673431065466447  0.6622607899124245
  0.0846815928258030  0.6015180999687521  0.6771941846091627
  0.9185930266340745  0.7541466228659259  0.8872862734364505
  0.2953252384770108  0.0925644688906931  0.4649832721021545
  0.2158679029999065  0.0200758047968064  0.4424041174875442
  0.1174134435496053  0.1777209012046085  0.3463420204574790
  0.1683062122737753  0.1433474426104173  0.4008362756624507
  0.6461952620613626  0.2917485218148201  0.6905359929589189
  0.5714579305948454  0.3293668255167765  0.6476000899985995
  0.3308961037329694  0.7644713523772881  0.6774572141273643
  0.2625251395410343  0.7298865821330235  0.7264401389815014
  0.9065682286999251  0.7376620374787515  0.3826331283060095
  0.8756668347530828  0.6693194220465450  0.3379229853442182
  0.8415497229713726  -0.0105604509465219  0.6626136787211909
  0.8293941043076599  0.0092453102610251  0.6060443950103627
  0.1796809130023288  0.0510221649862130  0.9069545335355417
  0.2160925395853402  0.9418065873743893  0.9096216588252363
  0.6521320530966480  -0.1514720098579365  0.8712380098945788
  -0.1332779986521241  0.5691792042846514  0.6622846228936581
  0.0166820958957921  0.9044004195753009  0.6753670382360777
  0.1299795586584806  0.8520320424898707  0.6562010524075877
  0.8878220462446643  0.5884785106645676  0.4301028749125546
  0.8175219639003442  0.4538062041305423  0.4749803659057328
  0.7784911100487397  0.3939751280427943  0.5182481445126577
  -0.1483317259404488  -0.1009339516941809  0.7293178531781092
  -0.0816474599397369  -0.0125128226292977  0.7438120794989025
  0.8524087688213247  0.1969049988856588  0.5377033251053585
  0.8513249630343176  0.1195052528764035  0.5028511753668345
  0.2248388975344024  -0.1180736040531924  0.4794264590931716
  0.1705076936222159  -0.0579205877111812  0.5254351765578380
  0.2136457680951476  0.0438647484176050  0.5864083956402402
  0.1040004294645846  -0.0112584281782813  0.6043663212735101
  0.7646544844492499  0.3848500889471763  0.8801290389684786
  0.6670958263121386  0.3491635052459632  0.9236193869647386
  0.6970230652691437  0.0005022199778982  0.8652088019272118
  0.7404560939364018  0.0763468094563761  0.9023924122065671
  0.8583066645833565  -0.0639511450865112  0.5224594231099456
  1.0574768231857761  0.3112051684016203  0.8557119988815295
  0.8158591861662979  0.4685221206821311  0.6034061068143813
  0.9764348639125738  0.7945661503179383  0.8371542161869420
  0.7228108608547302  0.5736696247373575  0.6484604448984967
  -0.0353007356770081  0.5062729278812942  0.4139102818044027
  0.4271207571699773  -0.1271064549666042  0.4766352028384488
  0.4617185111987456  0.9028841253621059  0.8781403764406616
  0.6025015457395243  -0.0707733066264521  0.7018546974156902
  -0.3057886412490354  0.8854559687522786  0.3473506932392403
  -0.2167467791073713  0.9245671510976111  0.3868824921571871
  0.6188880830890643  -0.0709631792903636  0.5010651790958944
  0.8480416645729700  0.8351753336595737  0.4689200764312300
  0.8266348877644127  0.7790157901109611  0.5148385766654600
  0.7970278409612460  0.8634466026391160  0.8663624692899551
  0.3123827468704802  0.3644036016219592  0.3893894121883859
  0.4245497357479278  0.3085238966518065  0.4073352368976828
  0.3148449813147753  0.4660866694843528  0.3942451636310844
  0.5382421491166037  0.3488383518381082  0.3825891734091982
  0.4349026166140939  0.5107956516704608  0.3823610720678245
  0.5545716585177146  0.4555059685745605  0.3927712690110409
  0.2259137925048346  0.5113158357120861  0.4067421364641035
  0.5946584863418474  0.6281522377702796  0.4928777632853660
  -0.0362093280157221  0.8409202946169934  0.4128732012328634
  0.7591439271656133  0.8009065418252144  0.7642096909380544
  0.5565367780208171  0.5307519332158130  0.8730693512453364
  0.2314887947660604  -0.0289462658131101  0.7572777227067480
  -0.0780242957835277  0.3912175411241984  0.8771906790397671
  0.0492278612158782  0.7861789709349224  0.7877377955509250
  0.4750772171893099  0.1121913041301416  0.8967068384727493
  0.6082062060326779  0.2287725848172896  0.8208099583592998
  0.7119129879659692  0.0710732408743851  0.8656745440965818
  0.3439667860061417  0.4024973104478545  0.7427577413219092
  0.5388257281185458  0.1418864038256039  0.5338746608470540
  0.4585451652059582  0.8272894703681668  0.3727268212086167
  0.4557561174429526  0.7490299049678228  0.6500555676608089
  0.4021247175875114  0.7017709767427167  0.5476810360329294
  0.5085764420814031  0.4443405190940343  0.5246479580380093
  -0.0344165356790482  0.3561905122669618  0.7558486273543993
  0.6483695600973595  0.5276241602279137  0.7750996296475648
  -0.0527728088040552  0.0130233956412679  0.3764940077723172
  0.4800407579425812  0.8411592540508958  0.8924190296775755
  0.3395288846246454  0.2760725833531188  0.8981830790534381
  0.4317741743640368  -0.0141702277279115  0.8213302674740866
  0.0555732823090190  0.7240668890563280  0.5721468257092479
  0.0083415485425596  0.4308872282502267  0.3724292128552891
  0.2630074017637281  0.5400282645482621  0.5255311864096561
  0.0120916911163952  0.1895585040112939  0.7054258920742749
  0.7225141162202952  0.3492103955506307  0.7576977141597236
  0.5488115976041121  0.5902279054477525  0.6767211307748121
  0.3197341986566589  0.0901507245794422  0.6145985997020189
  0.2149281127162320  0.4278799135154665  0.6591965365729875
  0.8835729039434467  -0.0006479081141874  0.5330100729158653
  0.8364725915282426  0.6238524016542560  0.7811338614315506
  -0.0368479043043382  0.5346223500783230  0.7121161230430001
  0.1242607625635122  0.3507719366123931  0.4871634562852146
  0.9018797433803378  0.0588347361991058  0.7961873706993344
  0.2386615658877342  0.6762430344321536  0.7902629357870289
  0.8286138947745209  0.6628242659463642  0.5451218432935934
  0.7442908172714846  0.1317052782322977  0.3811994739457463
  0.3089022317807287  0.4561914394981210  0.8836455872344077
  0.8999462309495462  0.5788508804397320  0.8818385481368741
  1.1091336160580398  0.2530521576398078  0.8572478829925362
  0.3936377089139996  0.2353638774186486  0.7813330667421899
  0.1702891699618135  0.5062680831739694  0.8144485499442354
  0.5660031364491066  0.0047738503692942  0.7459370012029685
  0.7026759728040897  0.6831854829310271  0.8793981080580322
  0.0369787707247597  0.0739538371756261  0.8838693605093360
  -0.2054095734718988  0.4068203435560193  0.5858319182306055
  -0.0454472851337004  0.1899698854563444  0.6052744798036203
  0.0204352759521014  0.3577039543234172  0.5761658156078114
  0.2513088496481895  0.1314975367582767  0.7145291363332408
  0.5678553309018360  0.1179526529546600  0.6260835531955387
  0.2853940590654391  0.2164345560162949  0.5212046957282108
  0.1065050355076841  0.6708974911958336  0.4740540321730309
  0.4707405218784102  0.4378706110981683  0.6381693487856769
  0.3199950908343682  0.7062895707850464  0.8920066892448660
  0.1512629234411854  0.8436510313005260  0.9133470002008867
  0.1396472154288265  0.6128669324793095  0.6488865256806200
  0.9425523747952707  0.8126574136780772  0.8710968725854592
  0.2609486766583883  0.0782034718400090  0.4315561037977028
  0.0901383995497726  0.1618411446872182  0.3825411897436076
  0.6358977082111057  0.2892317415622426  0.6553398561521376
  0.2479292499230900  0.7592606272809640  0.6944512642201759
  0.8884065408117523  0.6711795101686472  0.3758779133881182
  0.7813495845435126  -0.0019696928938288  0.6362077478593473
  0.0623280587381894  0.8906050074450346  0.6426921777583186
  -0.0642714761829474  0.5386537759344647  0.4455897267140213
  0.7602296956141967  0.4039958274630989  0.4817441382753490
  -0.0847484246844480  -0.0593966611901902  0.7160698670392999
  0.8170200169909770  0.1795983862592914  0.5055789222137436
  0.1640555377385066  -0.0757979681007204  0.4890711327404877
  0.1323388149459014  0.0239633031098077  0.5758895186208802
  0.6771112250397254  0.3749353436983348  0.8892672081836903
  0.8064637047197764  0.5621586467998734  0.6348143984317307
  0.3733738820907741  -0.1812834607962739  0.4711113321538708
  0.6225205925800166  0.8724273033449089  0.6834440662821210
  0.7052919580941104  0.8948175214563358  0.3815768297798700
  0.5623454936163810  -0.0287000796308998  0.4858445389527590
  0.8099194926217300  -0.1609547247125228  0.5000424544751169
  0.2446675065542841  1.0081389166261674  0.9187538186138242
  0.7125995056149429  0.8849293742941010  0.8541232545245088
  0.5285023524280855  0.0327479340621780  0.3944184183439501
  0.6271299488389133  -0.2941179396093129  0.3995851458684421
  0.1884604402167555  0.6943593982129238  0.3802731453256715
  0.9165979407397972  0.2769200707058068  0.4160010656243646
