combine
1.000
11.0985002518  0.0000000000000000  0.0000000000000000
0.0000000000000000  14.4173002243  0.0000000000000000
0.0000000000000000  0.0000000000000000  26.7964000702
Pt  H  C  O  K  
96  170  6  81  4  
Direct
  0.4999999886561249  0.3333300219343480  0.0018699899937576
  0.1249999521128992  0.1666699702868031  0.0018699899937576
  0.2499999943280624  0.0000000000000000  0.0018699899937576
  0.3750000365432257  0.1666699702868031  0.0018699899937576
  0.4999999886561249  0.0000000000000000  0.0018699899937576
  0.6250000308712881  0.1666699702868031  0.0018699899937576
  0.7499999829841874  0.0000000000000000  0.0018699899937576
  0.8750000251993506  0.1666699702868031  0.0018699899937576
  0.0000000000000000  0.3333300219343480  0.0018699899937576
  0.1249999521128992  0.4999999922211510  0.0018699899937576
  0.2499999943280624  0.3333300219343480  0.0018699899937576
  0.3750000365432257  0.4999999922211510  0.0018699899937576
  0.0000000000000000  0.0000000000000000  0.0018699899937576
  0.6250000308712881  0.4999999922211510  0.0018699899937576
  0.7499999829841874  0.3333300219343480  0.0018699899937576
  0.8750000251993506  0.4999999922211510  0.0018699899937576
  0.0000000000000000  0.6666699625079541  0.0018699899937576
  0.1249999521128992  0.8333300141554991  0.0018699899937576
  0.2499999943280624  0.6666699625079541  0.0018699899937576
  0.3750000365432257  0.8333300141554991  0.0018699899937576
  0.4999999886561249  0.6666699625079541  0.0018699899937576
  0.6250000308712881  0.8333300141554991  0.0018699899937576
  0.7499999829841874  0.6666699625079541  0.0018699899937576
  0.8750000251993506  0.8333300141554991  0.0018699899937576
  0.0000000000000000  0.2222199683821562  0.0864100026098289
  0.3750000365432257  0.7222199606033073  0.0864100026098289
  0.6250000308712881  0.0555599860957249  0.0864100026098289
  0.4999999886561249  0.2222199683821562  0.0864100026098289
  0.1249999521128992  0.7222199606033073  0.0864100026098289
  0.2499999943280624  0.5555599783168760  0.0864100026098289
  0.3750000365432257  0.3888900080300730  0.0864100026098289
  0.0000000000000000  0.8888900002512240  0.0864100026098289
  0.8750000251993506  0.7222199606033073  0.0864100026098289
  0.7499999829841874  0.8888900002512240  0.0864100026098289
  0.4999999886561249  0.5555599783168760  0.0864100026098289
  0.6250000308712881  0.3888900080300730  0.0864100026098289
  0.4999999886561249  0.8888900002512240  0.0864100026098289
  0.6250000308712881  0.7222199606033073  0.0864100026098289
  0.8750000251993506  0.3888900080300730  0.0864100026098289
  0.7499999829841874  0.5555599783168760  0.0864100026098289
  0.2499999943280624  0.8888900002512240  0.0864100026098289
  0.7499999829841874  0.2222199683821562  0.0864100026098289
  0.8750000251993506  0.0555599860957249  0.0864100026098289
  0.3750000365432257  0.0555599860957249  0.0864100026098289
  0.2499999943280624  0.2222199683821562  0.0864100026098289
  0.0000000000000000  0.5555599783168760  0.0864100026098289
  0.1249999521128992  0.3888900080300730  0.0864100026098289
  0.1249999521128992  0.0555599860957249  0.0864100026098289
  0.2637321649044682  0.1171938552720286  0.1680769875879221
  0.8803953703217953  0.6205515571369318  0.1700616765148180
  0.6251431936828349  0.9549658615622313  0.1761836182820047
  0.8699423212910323  0.9560885983817586  0.1691880564636667
  0.3809042946153353  0.2829727205183508  0.1712069935469417
  0.1280227862921892  0.9537992367823955  0.1732124147811082
  0.0027948627558908  0.4410143947466219  0.1759823090245720
  0.7530193380988178  0.7868761831690866  0.1691124397653531
  0.3815170677509576  0.9581929615099443  0.1733337296887631
  0.0095186502232918  0.7894425223951810  0.1721496296187210
  0.7513266349791371  0.1174730158802829  0.1717192393845930
  0.3761027875836661  0.6162916218477654  0.1695391911076991
  0.1297053584754868  0.2803325610774144  0.1731289494874814
  0.7482236318148660  0.4487045612739949  0.1706491591490062
  0.8783125724864526  0.2799404624103927  0.1712275146915193
  0.5024565123198135  0.1222549183327129  0.1722600823098380
  0.2534429187622718  0.7888587594944255  0.1711071958355703
  0.5095693626697693  0.7786178771237340  0.1725416182579592
  0.4979921484529961  0.4534750756372927  0.1716994393741958
  0.0078279534918161  0.1199673922503738  0.1696533476844029
  0.1349029191811006  0.6113805571894418  0.1659161754844936
  0.6334316018202389  0.6135736478449800  0.1707255603668801
  0.2549114217608959  0.4438016322165241  0.1745162797147735
  0.6236009169777257  0.2821960794187136  0.1682940419267423
  0.8857383262937414  0.5143834640413801  0.2551151037635996
  0.7566739866350848  0.0146734478306441  0.2562224488257073
  0.3817264354445450  0.1835082271118104  0.2572233028855714
  0.2523298419122715  0.0167886721670702  0.2547175877550277
  0.6223919155274781  0.8460858170061629  0.2587400536391622
  0.8714196956955012  0.8481923184126337  0.2554990399070012
  0.1247437948091645  0.8523254515840970  0.2632925997565665
  0.7614144612133025  0.6795909454868631  0.2603736257266562
  0.1242612160482070  0.1788134380218311  0.2579193630933282
  0.0090095085760603  0.3432136787066352  0.2602592981866891
  0.3809038290028757  0.5150731280870272  0.2582267093144036
  0.5134270634877744  0.6764871708408597  0.2613603136746916
  0.2573198273196258  0.3471368806182293  0.2613484033621435
  0.5012275617147272  0.0107213482548883  0.2625014207196638
  0.2539691798306583  0.6780757986174664  0.2583105135640087
  0.0042843004749482  0.0131233114353202  0.2541274801115169
  0.0165494931416712  0.6826647404977561  0.2516143747979830
  0.7535505707037856  0.3438816833989262  0.2554604595492930
  0.4947456718135820  0.3451694531693515  0.2592446022675072
  0.8740220697050270  0.1798653806438234  0.2531563448346951
  0.3725926997595313  0.8469834371152446  0.2549636503523440
  0.6288215232655530  0.1802773137108750  0.2619356079627159
  0.6381112723722648  0.5135003799339589  0.2581096268596044
  0.1326448973554998  0.5181475443654155  0.2552759727866291
  0.2287439332704670  0.3378778707950860  0.3332669536320050
  0.3388103693460872  0.2096178290513980  0.3617805784994628
  0.4503297711138409  0.3480528098695148  0.3361095015974203
  0.3274010221706016  0.5089542883647807  0.3649278936044417
  0.5365742202991945  0.4643339432175162  0.4073148590260817
  0.4634221988566284  0.3911398964623974  0.4462218465530902
  0.5387699053059186  0.2915219937583054  0.3765563391263657
  0.3557230002368742  0.2479566610865641  0.4269625221345864
  0.1460257287859369  0.2782314772455786  0.3849584519627979
  0.3339288264104808  0.5300270443089160  0.4295287988478705
  0.6330269770783264  0.7510035078378000  0.5132373568192271
  0.7777674552559494  0.7425255620783029  0.5190036793959614
  0.0830564393734639  0.8309095566525623  0.3885518314222680
  0.1534286537610186  0.8533405678244685  0.3410546600385859
  0.7543837997789034  0.8678721321007595  0.7901001649413716
  0.7283453396677608  0.8713646979845671  0.7322293790470921
  0.4078652579447247  0.5489178104692096  0.9210107687952502
  0.3330696137796162  0.4868019570037608  0.8870413139798516
  0.0139054183717273  0.0548851677907276  0.7610969975060452
  0.1309071997961496  0.1210540282124657  0.7462349906634587
  -0.0747473949703659  0.3684940290308719  0.8973321841817289
  0.0474641601251092  0.3439098381639435  0.8816917289861788
  0.0476357879087542  0.7767280048122679  0.7772470593227918
  -0.0838372468612678  0.8245260850962940  0.7656832783675804
  0.4115973991584246  -0.1675721922699505  0.5175536638790185
  0.5147753870774930  0.1841806948172175  0.8913394726466229
  0.4616610507143981  0.1195129199845500  0.9281106210627783
  0.6686298655439022  0.3040781206255871  0.8770718882323578
  0.7044782060740088  0.1988952458981776  0.8827121489503666
  0.3298507634584473  0.3937606855083461  0.7765117082812945
  0.3122055941331379  0.3093730848291717  0.8069822268532283
  0.5165143520783607  0.2507656011217964  0.5555575800070106
  0.5786955488745741  0.2691919610412659  0.5035413847028479
  0.4373624625735128  0.7568518068735575  0.3769453821647100
  0.4236612632988326  0.6819854102661852  0.3367912003947268
  0.5367345110826012  0.7491774458435004  0.6622659434628880
  0.5799539706687922  0.8516779281535821  0.6551921008234507
  0.5275266738450045  0.7726068372097610  0.5826309798517452
  0.4919557643668548  0.6831107510128983  0.5528143318539965
  0.6800513883914998  0.4540397663126161  0.5610225030831089
  0.5832828982501569  0.3989882236762043  0.5299386251809313
  -0.0022106187992401  0.4268762619735771  0.7453333763780805
  0.0818455454873444  0.4558111272402991  0.6973920398763669
  0.5322901523962102  0.6308231693594752  0.8079899983721358
  0.4071037898536978  0.6134196669910433  0.7815072330775101
  -0.0559649788627308  -0.0160751544876185  0.3567742184866046
  -0.1513111646889083  -0.0636649087984547  0.3261599180413628
  0.5377733817532696  0.9483941888339137  0.9200451856560146
  0.3192710894722295  0.2067613849974282  0.8887727256985325
  0.1873940370783602  0.2038988892695220  0.8687648461999637
  0.2273928321613267  -0.0109666864905476  0.7984403781123391
  0.3089418530980260  -0.0471768646985378  0.8422745086605787
  -0.1949736947610599  0.8773544444319947  0.6590225438617358
  -0.0523142033812933  0.8995210518361570  0.6579317307143195
  -0.1092851209156198  0.4369150661150112  0.3366602873433165
  -0.0204399418708134  0.4119900747845038  0.3784240949282228
  0.3779511983900426  0.5500395309750185  0.5294747951713987
  0.5198061152329432  0.5409775553369032  0.5293119927729956
  -0.0499217375798267  0.3306916222889077  0.6287568002702331
  -0.0950317110123904  0.2947968684273104  0.6768008613354248
  0.5340106517760164  0.4091543007932616  0.7757418794928765
  0.5891769768928447  0.5028721422392388  0.7730096069559614
  0.5396390112194347  0.6410390585487532  0.7179129697908119
  0.4956572169476517  0.5906789055378414  0.6728379326277700
  0.2599090502009191  0.1885422029513143  0.6359234001305465
  0.3908903693808897  0.1563175409152876  0.6154935106242763
  0.1276624022394564  0.5806615734400761  0.6307577057784183
  0.1684859106433525  0.5047776332030531  0.5987256236908488
  0.6885669661322554  0.0096521361236172  0.6762622196573566
  -0.2946773233139838  0.0118784903786184  0.4832201042034732
  0.8045168484410198  0.6279356751370941  0.8204406007711883
  0.7545748037390695  0.7006425130049235  0.7825294039559954
  0.8909259787867583  0.6253714531798036  0.7462457390662011
  -0.0067891990350480  0.5705943403630146  0.7228496265004237
  0.1157749571967262  0.3649410720692305  0.4600769813371421
  0.1742205692328928  0.3119156535785008  0.5007609616756945
  0.6812198182609226  0.2280693421336898  0.7489086712217541
  0.8151963802435960  0.2746506685090728  0.7531853286570729
  0.2576175511764563  0.7485801109287787  0.8043323643973020
  0.2461340553699549  0.6542164131119738  0.7809351290015956
  0.4038624799664304  0.1037712377854461  0.4834255285509818
  0.9003040243008916  0.7824595355645181  0.5933859151544352
  0.8085822493399097  0.7053405262491672  0.6022653805033874
  0.5978302158279363  0.0775260964959387  0.3519439832363128
  0.4765050215809375  0.1244765122581841  0.3606263717993473
  0.2305358781683169  0.3551489454988168  0.8980656556349282
  0.1814589040148351  0.4449528945986465  0.9257080937706292
  0.9268610881214918  0.5665780402583387  0.9219310427886001
  0.7977366632004242  0.5498790570815706  0.8994558909912599
  0.8067415601533968  0.4054882079410843  0.7823456742091972
  0.4845154194890315  0.2608499532430729  0.7733341032344623
  0.5723125977106535  0.2247046265596715  0.8140196266198378
  0.2160303730146914  0.5015784327992036  0.8213735300726805
  0.1834488937701102  0.5085955172065523  0.7660071105307542
  0.5063916164698464  0.0911475977024543  0.7798248447760258
  0.4331400310344046  0.0074382401650519  0.7777984636480478
  0.6626800770588058  0.7534200898439981  0.8695467148743048
  0.6389901384603579  0.6537633073086424  0.8898259173931655
  0.0754003918380124  0.0971433646668061  0.8229494598389689
  -0.0027644519893599  0.1211532673333649  0.8740561434611088
  0.6995040159449375  0.3929834208037440  0.6325693503080126
  -0.0294955251586274  0.0949683451893628  0.5759607362917241
  -0.1061514611407904  0.1888776065098703  0.5679769650859077
  -0.1492878898868594  0.3586700041304764  0.5586835353062507
  -0.0276794384313481  0.3354351279755503  0.5200965726138295
  0.2249208711055480  0.2742456986735859  0.7227653867669489
  0.0981593879428271  0.2601292797786688  0.6931710508366569
  0.6007003218312077  0.1625719724313919  0.6230665486804469
  0.5265508107414971  0.2508762670977543  0.6391735707792844
  0.3622292541326011  0.2643345803451238  0.5079725855727010
  0.2789012293888967  0.1978915828978323  0.5448046404537443
  0.1801616973857084  0.4565361455750344  0.5072929187983475
  0.1384984900685750  0.5585036582874483  0.5138471252118916
  0.4196482854649333  0.5270949831156039  0.6063810197202629
  0.3228061694929411  0.4994195709654505  0.6486412940046193
  0.4186509542445996  0.7742353328389515  0.8691402592880518
  0.3567532144406488  0.6772697038133635  0.8871328419647144
  0.0845470483498719  0.7958182336635827  0.9011644907539167
  0.2281582363247066  0.7817819176091443  0.9068749436318826
  0.1610172283872471  0.7318380639473911  0.6388825065512699
  0.0288320877542083  0.6990132375001790  0.6561846732671491
  0.8868824729002110  0.7226865844645946  0.8908262614778103
  0.2511713186876661  0.1536762283180916  0.4554166316643188
  0.2030817895268735  0.0513003533111838  0.4550885086971678
  0.0672304473371513  0.1253608426738407  0.3414841726100450
  0.1232700171879632  0.1152785101331754  0.3926148123978758
  0.5959525528620216  0.3896517627018311  0.7125742949977343
  0.5335702929267018  0.4108887231269142  0.6610789072521779
  0.3653282076686361  0.8039619107510660  0.6626850094109474
  0.2856959833816958  0.7590373341435586  0.7045968978421466
  0.9038717222512141  0.8165670006064951  0.3666600690003308
  0.8946248849694511  0.7266261594554980  0.3409884579929621
  0.7470476058740741  0.1587539261853117  0.6753196786431221
  0.8087762957471846  0.1084892785796130  0.6276632645593452
  0.1785761213798741  0.0542137391841647  0.9039244349257551
  0.1903748512198596  0.9408803842994548  0.9046629441377446
  0.6878758973818848  -0.0566517689437695  0.8605141555243206
  -0.1384588165640465  0.6152564566387587  0.6718197719334781
  0.1441848579712801  0.9784673702863760  0.7147178204806170
  0.1620158982479071  0.8739997839028006  0.6935429174782167
  0.9897754304342520  0.6447227329450514  0.5202575869511545
  0.8119049921396875  0.4790039025240111  0.4224022201507428
  0.7403884775393235  0.4920574318375506  0.4745368641641233
  -0.1739868457620500  0.0287593645307564  0.7953409677593656
  -0.1795052368338587  0.1050888016985553  0.7527514987668807
  0.7618840812684226  0.2815852529835980  0.4749002814057859
  0.7235128602261081  0.1785748528951787  0.4773463135902691
  0.2014673151210100  -0.0786116337086286  0.4990075255993220
  0.1090701309038285  -0.0101233926622407  0.5251954279579077
  0.1917935939727326  0.0863301191926473  0.5908608587355603
  0.1238266856530559  -0.0089415296202767  0.6118799917020952
  0.6012343077000677  0.4566761545204400  0.8601799088950520
  0.6261511612952324  0.4589693679713379  0.9182285965592524
  0.7982235393077723  0.0548047784333605  0.8757278814177987
  0.8264251899992013  0.1193766921145990  0.9213334341188515
  0.7726726104645705  0.0700037950377775  0.5305624314256585
  0.9071018668731584  0.3591853984681400  0.8109955437024418
  0.7899680388868808  0.4783182426399685  0.6237353336647378
  0.9396487222774655  0.7897939678961535  0.8498346686062906
  0.7221039116163656  0.6109352071446965  0.6645014174050247
  -0.0493904625907538  0.5656765115325864  0.4860465262714221
  0.4066937397301001  -0.0639992106320169  0.5120413869122230
  0.5001129941317789  1.0169116251383215  0.8755904500393168
  0.5852618131487205  -0.0261353895346446  0.7161785813700445
  -0.3922023421041987  0.8602305967657103  0.3458604225948485
  -0.3453894367284714  0.8832556022199558  0.4014983716064402
  0.5330720197028846  0.0840958596642436  0.5069260173498601
  0.8137274938418180  0.9213262110274830  0.4393887542003743
  0.7193027271144364  0.8628138633357737  0.4768811294212262
  0.8125263011583436  0.8886445029081060  0.8750920465274641
  0.2268811100303046  0.3225650234959850  0.3786131746063410
  0.3485836195726129  0.2697550156613201  0.3870178188760934
  0.2246790339618704  0.4194074024211829  0.3974821327005401
  0.4549014651850080  0.3321723566960347  0.3753295925255580
  0.3407241334509765  0.4748490739383486  0.4017246244271220
  0.4572470365783841  0.4175866987532550  0.4091978522366553
  0.1270028456837125  0.4646865223634670  0.4042652342486521
  0.7153428943800206  0.7567457468986516  0.4938570624423890
  0.1629511303751773  0.8461509844151356  0.3796499345751136
  0.7467245327904457  0.8245620619638024  0.7581566369765119
  0.4040821792901840  0.5278676902540196  0.8860170209319761
  0.1100384533038084  0.0601547214740136  0.7620390233801876
  -0.0364549789990212  0.3397220453344486  0.8678135874064981
  -0.0267222778908258  0.8030148196044874  0.7898514351462296
  0.4520632675920592  0.1380831394385878  0.8927167853977132
  0.6383487071914038  0.2402767166117049  0.8710045440415682
  0.8178677665865564  0.1202623504487772  0.8846783075224874
  0.3356006698829347  0.3263352851714950  0.7743923172604401
  0.5118257946409213  0.2923805575883862  0.5257511304687298
  0.4003061673742314  0.6973582411049605  0.3718728304695604
  0.5222832903805981  0.8073572109694448  0.6435843172635273
  0.5161054399103167  0.7492198406671146  0.5490941371323608
  0.6413368145975934  0.4546146551316774  0.5275313430896426
  0.0606963590680413  0.4751157230710010  0.7328503768100902
  0.4965192072961628  0.6039715063381627  0.7770161504960914
  -0.1229398159250128  -0.0561144589564986  0.3624198901105419
  0.5378775546931955  0.9571321517076886  0.8823639284179238
  0.2578816632666934  0.2502200045969531  0.8770415855761102
  0.2988209807863114  -0.0470773232741607  0.8056695389321699
  -0.1236778423532837  0.8803448319545721  0.6395870843322605
  -0.1067741401823914  0.4157966901733891  0.3726257737024999
  0.4487520302206819  0.5722851246097707  0.5477601644529577
  -0.0215649821029813  0.3189870272971507  0.6615553624090853
  0.6104326499610810  0.4402418340017726  0.7813648466752320
  0.5560410753335006  0.6344786940957342  0.6829573733209084
  0.3013528028850173  0.1613907191499145  0.6058032124491578
  0.1506925008835093  0.5170119483977041  0.6328251680813719
  0.7117506598171990  0.0760524007159070  0.5026284027300491
  0.7733975421866466  0.6342983466825883  0.7863683318093827
  -0.0496563017611878  0.6311126019325007  0.7196477462823636
  0.1015098594260321  0.3485440234316811  0.4939616466885063
  0.7707860890134758  0.2199821862039353  0.7386034237117688
  0.2459928312708028  0.7224160440763584  0.7713253289528803
  0.8594447240881037  0.7310845323547224  0.5749159200542201
  0.5419793769995578  0.0925489401442207  0.3792370515247406
  0.1994004184070797  0.4210750012244232  0.8897124224053301
  0.8766846764923907  0.5755757470537729  0.8924761316202242
  0.8756785817997146  0.3642889709578065  0.7755596180291275
  0.5442575779480058  0.2148349033045391  0.7788824728665958
  0.2449229421298736  0.5299193695934110  0.7916864070182417
  0.5189686173828627  0.0240443542138161  0.7774434398920553
  0.6030782616610256  0.7035101164436255  0.8688502308297649
  0.0779084852982514  0.1229543312909729  0.8576834066923401
  -0.2425150763107360  0.4159928804348108  0.6072623861253817
  -0.1146467760536957  0.1193763070979930  0.5770849375023749
  -0.1156738305873162  0.3193835154683802  0.5314678628469106
  0.1751729436943238  0.2251453313519107  0.7022158871006720
  0.5284348407658789  0.2002129339191276  0.6145428849755596
  0.2838698751202023  0.2276959048037988  0.5099078237115608
  0.2127823777196375  0.5157282811637509  0.5211595662781044
  0.4116170346312412  0.5056623087526753  0.6437498743677793
  0.3415121765740626  0.7411445354651204  0.8728455899197742
  0.1598047319963210  0.8275242374013382  0.9073364452950762
  0.0850900312721836  0.6946129786852121  0.6289508824897243
  0.9167819820745413  0.7876751257464623  0.8865905625853228
  0.2490067133756912  0.0972520635893241  0.4349323120071260
  0.0458303787052224  0.1266775073825359  0.3776205504728634
  0.5953503947191756  0.3749288902015946  0.6779995747639396
  0.2845885579259000  0.7854267837201676  0.6706282568039698
  0.8976835659380346  0.7510084261303303  0.3757476145162230
  0.7332909652347015  0.1102015470498493  0.6490915006655288
  0.1299837642807666  0.9361074716230566  0.6848090270531267
  0.0114134028676042  0.6149376004223742  0.4892857213376477
  0.7798754693451688  0.5234428062669001  0.4471114506393686
  -0.1306764352476167  0.0508900400134119  0.7656003997833609
  0.7100193037272730  0.2377434120795262  0.4595492884767969
  0.1273626644979124  -0.0402541118289141  0.4937288321244733
  0.1176672028356443  0.0454909875841088  0.5875977416537534
  0.6696573825183827  0.4536272633330377  0.8848049413237111
  0.7954187588875574  0.6032975418546026  0.6457429811007763
  0.3568602863127972  -0.1192096534969290  0.5005158964884755
  0.6480619700245974  0.9495937011858069  0.6904372021962393
  0.5922361657588803  0.8511934620474920  0.3813960550792643
  0.4459121846483138  0.0733660792411886  0.5108981040787178
  0.7309777946695312  -0.0814117242922982  0.4520191291281014
  0.2310263411927348  1.0031440838780341  0.9126897692126247
  0.7736043660230139  0.9369006748249102  0.8522455588203027
  0.3630316652780670  -0.0688665641939357  0.4009138967755312
  0.6542018141525416  -0.3312658295726020  0.4040570183694525
  0.1339836146382777  0.6580923621544869  0.3992701851917136
  0.8197121651301055  0.2234459486506540  0.3684516976472470
