combine
1.000
11.0985002518  0.0000000000000000  0.0000000000000000
0.0000000000000000  14.4173002243  0.0000000000000000
0.0000000000000000  0.0000000000000000  26.7964000702
Pt  H  C  O  K  
96  170  6  81  4  
Direct
  0.4999999886561249  0.3333300219343480  0.0018699899937576
  0.1249999521128992  0.1666699702868031  0.0018699899937576
  0.2499999943280624  0.0000000000000000  0.0018699899937576
  0.3750000365432257  0.1666699702868031  0.0018699899937576
  0.4999999886561249  0.0000000000000000  0.0018699899937576
  0.6250000308712881  0.1666699702868031  0.0018699899937576
  0.7499999829841874  0.0000000000000000  0.0018699899937576
  0.8750000251993506  0.1666699702868031  0.0018699899937576
  0.0000000000000000  0.3333300219343480  0.0018699899937576
  0.1249999521128992  0.4999999922211510  0.0018699899937576
  0.2499999943280624  0.3333300219343480  0.0018699899937576
  0.3750000365432257  0.4999999922211510  0.0018699899937576
  0.0000000000000000  0.0000000000000000  0.0018699899937576
  0.6250000308712881  0.4999999922211510  0.0018699899937576
  0.7499999829841874  0.3333300219343480  0.0018699899937576
  0.8750000251993506  0.4999999922211510  0.0018699899937576
  0.0000000000000000  0.6666699625079541  0.0018699899937576
  0.1249999521128992  0.8333300141554991  0.0018699899937576
  0.2499999943280624  0.6666699625079541  0.0018699899937576
  0.3750000365432257  0.8333300141554991  0.0018699899937576
  0.4999999886561249  0.6666699625079541  0.0018699899937576
  0.6250000308712881  0.8333300141554991  0.0018699899937576
  0.7499999829841874  0.6666699625079541  0.0018699899937576
  0.8750000251993506  0.8333300141554991  0.0018699899937576
  0.0000000000000000  0.2222199683821562  0.0864100026098289
  0.3750000365432257  0.7222199606033073  0.0864100026098289
  0.6250000308712881  0.0555599860957249  0.0864100026098289
  0.4999999886561249  0.2222199683821562  0.0864100026098289
  0.1249999521128992  0.7222199606033073  0.0864100026098289
  0.2499999943280624  0.5555599783168760  0.0864100026098289
  0.3750000365432257  0.3888900080300730  0.0864100026098289
  0.0000000000000000  0.8888900002512240  0.0864100026098289
  0.8750000251993506  0.7222199606033073  0.0864100026098289
  0.7499999829841874  0.8888900002512240  0.0864100026098289
  0.4999999886561249  0.5555599783168760  0.0864100026098289
  0.6250000308712881  0.3888900080300730  0.0864100026098289
  0.4999999886561249  0.8888900002512240  0.0864100026098289
  0.6250000308712881  0.7222199606033073  0.0864100026098289
  0.8750000251993506  0.3888900080300730  0.0864100026098289
  0.7499999829841874  0.5555599783168760  0.0864100026098289
  0.2499999943280624  0.8888900002512240  0.0864100026098289
  0.7499999829841874  0.2222199683821562  0.0864100026098289
  0.8750000251993506  0.0555599860957249  0.0864100026098289
  0.3750000365432257  0.0555599860957249  0.0864100026098289
  0.2499999943280624  0.2222199683821562  0.0864100026098289
  0.0000000000000000  0.5555599783168760  0.0864100026098289
  0.1249999521128992  0.3888900080300730  0.0864100026098289
  0.1249999521128992  0.0555599860957249  0.0864100026098289
  0.2478035098079088  0.1176991495148246  0.1703339495843679
  0.8843140562174816  0.6151619513445079  0.1731433146260445
  0.6277685635381246  0.9479955919183612  0.1728367670420974
  0.8928729998805764  0.9501184944884564  0.1739975021489967
  0.3771313659087554  0.2865294487061686  0.1709268097207437
  0.1344103621890770  0.9434021556113070  0.1742138565990277
  0.0093329009190409  0.4533660185894725  0.1722011028239421
  0.7600693965323715  0.7772530555070741  0.1753650397922622
  0.3829908857289629  0.9531737305877753  0.1686834577800906
  0.0115401820511044  0.7784028961736408  0.1764253760921220
  0.7595029951756674  0.1194665081744614  0.1727588581851416
  0.3847833161698933  0.6214519138956902  0.1707074716684456
  0.1246694970679119  0.2872137522266968  0.1716610607040272
  0.7580818881213660  0.4541340437486723  0.1691169954892443
  0.8863278279517640  0.2858992312480702  0.1686487577495804
  0.4997983207145815  0.1112622706154324  0.1710421884578839
  0.2567604520924195  0.7913282629414017  0.1739974168502254
  0.5107039617520154  0.7861186261903125  0.1729567690084651
  0.5077826691300917  0.4510346445959320  0.1714933185674631
  0.0083558083431101  0.1176177815623128  0.1746334323133232
  0.1309280703547607  0.6230362402497674  0.1752909032778500
  0.6314413107990339  0.6196608948631200  0.1727900006519585
  0.2584261814324717  0.4562982387307128  0.1737080861498445
  0.6235288752079496  0.2795669429985597  0.1694060538881228
  0.8865455525132071  0.5253663836751903  0.2599976078521058
  0.7483686258828471  0.0143927159781453  0.2595073470497001
  0.3836212929949235  0.1889400575434197  0.2578826813488616
  0.2501979848358019  0.0191290066870609  0.2560492550874499
  0.6404407546458546  0.8517786023281794  0.2565772319598259
  0.8816435409111282  0.8521158037268022  0.2640742160686506
  0.1306137423536027  0.8541716537568961  0.2630074425272379
  0.7581177039965725  0.6892912156223412  0.2626035672204188
  0.1334344978511685  0.1855665641539969  0.2549321159896018
  0.0032868692320914  0.3629279574466273  0.2597655656455515
  0.3914260053195415  0.5274365216022409  0.2648774412721710
  0.5104781890491140  0.6858792105843184  0.2607327020120824
  0.2538108746849053  0.3572792364841036  0.2630307592898763
  0.5021282001499409  0.0183659228621534  0.2614328187610058
  0.2633629458381953  0.6882903818410151  0.2637921955330488
  0.0093845071169060  0.0222352754269265  0.2625201159137454
  0.0022780575236640  0.6933462794200321  0.2648925855303153
  0.7518816152701905  0.3607064100832716  0.2550707153234776
  0.5132684318834986  0.3516397319073064  0.2544844822750515
  0.8824808918224364  0.1850458248072955  0.2597231407900851
  0.3891157109447820  0.8571178471869537  0.2560897950330080
  0.6386057370634838  0.1916150617883197  0.2574234248156049
  0.6375152974702570  0.5258111438036637  0.2586019927582116
  0.1409312868868317  0.5354112912547597  0.2622544895915024
  0.2581572880565837  0.3501267189533808  0.3370627582973158
  0.3581764004965700  0.2340610389046568  0.3876003295961569
  0.5188733015315315  0.3215926772118748  0.3454086587508887
  0.3933212574367443  0.4919110663761140  0.3350203898315285
  0.5966366131969996  0.4663700001243790  0.3697246589931980
  0.5433642835501079  0.4640598485993477  0.4292310751693503
  0.5530322083836995  0.2979675283559254  0.4088125153080773
  0.3620731962724665  0.2971410021606870  0.4403913785129542
  0.1828440731143724  0.3386536106372202  0.3968735746383646
  0.4165903811238043  0.5666446044059300  0.3799790978237923
  0.5273074068769649  0.6664732736649751  0.5127101384890413
  0.6628720099282630  0.6391639024183126  0.5162729084935902
  0.0562328105726520  0.9043815280355699  0.4559428247933608
  -0.0221978120836681  0.9211463862503287  0.4097177857338228
  0.7101873237531947  0.8653258751574433  0.7893103475612550
  0.6353923754749019  0.8562973355852002  0.7389326959713589
  0.5540052614408681  0.5856471405838365  0.9239140010800420
  0.4794060930563180  0.5360473937397827  0.8848099526050641
  0.2397547089633522  -0.0476563293758669  0.6992183562163152
  0.2094542882515124  0.0649422375225220  0.7161071769539668
  -0.1256917434293660  0.4949666740984078  0.8844825561347540
  -0.1021978977489363  0.4214386519994250  0.9265158008112504
  0.0998647618465606  0.7918800577973201  0.7645388908558377
  0.0847812807543428  0.9018456998755668  0.7530486635009174
  0.3998176814728033  -0.1723431612051791  0.4966963873666580
  0.4861935622630500  0.1593854098305406  0.8855990461864633
  0.3822284248371295  0.1154993496003757  0.9116602722717024
  0.6393069208652085  0.2536046646124083  0.8771137506689934
  0.6675159548695303  0.1321184823764383  0.8763509292397548
  0.3348320669269979  0.3882627669405965  0.7327988408725620
  0.3352182297060008  0.3444931197124422  0.7860466469085222
  0.5743609193292716  0.2315685512515640  0.5395473292839253
  0.6574893909036510  0.2274428318745239  0.4925805969839546
  0.4464432889386475  0.8196646810116466  0.3939391127071351
  0.4098536970220155  0.7733621426712957  0.3461354861138544
  0.4780559236676594  0.7057648519831691  0.6569102704238219
  0.4995901220888594  0.8156185249427260  0.6531446352438852
  0.4302898062038137  0.7397101569283437  0.5773181986487835
  0.3454418240949451  0.6828335235751799  0.5424802837887882
  0.5695375474244668  0.5016518235300296  0.5275105899586794
  0.5484370961844879  0.3959274626797993  0.5223780879569292
  -0.1200644556172248  0.4022157850140456  0.7590512576694854
  -0.0136168359932676  0.3474917636074436  0.7404549345255357
  0.6432014233853116  0.6255826729472097  0.7724091157646877
  0.5657739260294746  0.5730063981032970  0.8133251491396074
  -0.0894385782204231  0.0640118038566273  0.3801027551207172
  -0.1260335945636564  -0.0051855148493053  0.3440900840092280
  0.4612262548058952  0.9272346901584387  0.9171584960224310
  0.3050623756620529  0.2514505342192814  0.8563351005465389
  0.1949353914326502  0.3150804548374144  0.8475649232359922
  0.2924687951755965  0.0017696127224290  0.7894394265342117
  0.3578968149282860  0.0630206793965903  0.8337996076475670
  0.0670828686767161  0.7668138392489340  0.5909253141734353
  0.0827978602560255  0.6671741152957104  0.6123011239836866
  -0.0056039198530372  0.4461371570634887  0.3342132527406006
  0.0671058999506901  0.4610938002799873  0.3856514724562727
  0.1865350174195146  0.6006444943072171  0.4987747638296939
  0.3189960327320628  0.5566058285291499  0.4922741371767235
  -0.0241474164634573  0.2367482766119427  0.6723827772274905
  -0.0413542590878945  0.2151171130620318  0.7329338146186818
  0.6757394334773897  0.3715873708220647  0.7632855784029702
  0.6869239354807003  0.4807912737307622  0.7467965641942530
  0.5098450133640605  0.5970812532287374  0.7177755643337222
  0.5171686027280213  0.5514597487468235  0.6637192482836093
  0.2963310920019670  0.1740607990510125  0.6443085612832149
  0.4245118834534313  0.1504034931897440  0.6195656284130142
  0.2252803237261264  0.5090970791555648  0.6693662539262919
  0.2150276992797248  0.4179533567209576  0.6447521942028928
  0.6050366280985517  -0.0452014467522570  0.6391033382146463
  -0.0730764176960272  0.0438583821632736  0.5413226920257627
  0.8140260855095941  0.6682655072522626  0.8150992824625708
  0.7814543909474059  0.7511088079617054  0.7765141137238103
  0.9114137393977582  0.6201703741959858  0.7461948393932439
  -0.0507352168333444  0.5195169440375348  0.7244605192392587
  0.2018091426755379  0.4475340725599181  0.5393023293778633
  0.2229268098992683  0.3377666240793315  0.5450057198817975
  0.8110334113061933  0.1300759162065000  0.7788125882516813
  0.9429683834536704  0.1165935144755311  0.7974668333252910
  0.2419363338992144  0.7214208526551644  0.8110627151730605
  0.1893557808370693  0.6396874237213702  0.7738591468135677
  0.5316888876173120  0.1223341492693119  0.4798530684388319
  0.8838449657474285  0.6999292714173850  0.5683135269664727
  0.7745737373304800  0.6943664014450428  0.5942680477147073
  0.7469879746009305  0.0917532041103228  0.3753799728227794
  0.6649399266178425  0.1493989249020150  0.3450657743270135
  0.3227625373274220  0.4268945967100319  0.8770644524163722
  0.3180186838422215  0.4836839168366960  0.9280280955558368
  1.1113440769981133  0.5903614253349748  0.8593450017977780
  1.1122283675848894  0.6122708221766666  0.9186974967461090
  0.9963871261890995  0.3307295087857901  0.8167116354721844
  0.5230072568281094  0.3015263481419989  0.7632056644669791
  0.6047091907856219  0.2308799306537030  0.8001388039001602
  0.2187020609389396  0.5089059782311799  0.8197814550966301
  0.1221350748431219  0.4934614125818708  0.7741920286363735
  0.5842808993177518  0.1287168203081588  0.7491362178020420
  0.5036060936695936  0.0409400962466715  0.7641402654557087
  0.7123395445360096  0.5872978735039909  0.8788017655359719
  0.8361946524166496  0.6220623011015535  0.9047726124958936
  -0.0418212160534683  0.0910233923469341  0.8833767515444968
  0.0298925887618188  0.1807829252530217  0.8713305858933511
  0.7213994455513465  0.4160802701250023  0.6127968543379581
  0.0309333704564560  0.1269589082299125  0.6032651972448083
  -0.0510029816062936  0.2184537571182414  0.5878374195240336
  -0.1248578975051387  0.3856556041281965  0.5614320139715586
  -0.0032013545068161  0.3446900235818098  0.5423672201275478
  0.2595597556465156  0.2275017231569963  0.7234437885430224
  0.1331603043087116  0.2114509390365432  0.6979980577988288
  0.6337196418281204  0.1123769650623797  0.6124972055874183
  0.6112976417962115  0.2190446274592531  0.6267022874977796
  0.3937347523861413  0.2334706616032496  0.5170748372356491
  0.3080212092030688  0.2171131391731824  0.5646739037990137
  -0.0065612184122075  0.6330423506071595  0.4646276229823088
  0.0379967699357943  0.6781540462909177  0.5158501190304414
  0.5000843592898823  0.4461065917084538  0.5894641526257115
  0.4110636785776605  0.4418817669179333  0.6415687832530441
  0.3805954336140983  0.7869110283614724  0.8825958300272340
  0.3845052313629393  0.6831878649581380  0.8938688670101359
  0.0704988336755772  0.8105300779132087  0.8905452124458407
  0.2020696679568282  0.7730432758149164  0.9022013251020834
  0.1896520466140122  0.6741107874218439  0.6694694804004733
  0.0847469574321499  0.6122442357982160  0.6919743264887598
  0.9795850783115264  0.7137033650972329  0.8683206900906051
  0.2273902264579124  0.1582829959352392  0.4678223705668996
  0.1787498128837949  0.0657693788190527  0.4543219722726410
  0.0257409195583580  0.1466077791206311  0.3374772567475144
  0.0815479429532124  0.1462318020780733  0.3917096503337009
  0.6990652757467553  0.3398935182358614  0.6851470200177143
  0.5876292076798635  0.3742800525236337  0.6466473570892118
  0.3131916854294124  0.7953526671084320  0.6665194549943401
  0.2501631181609160  0.7694031593587475  0.7145722704071079
  0.9237312265265104  0.7790402418179044  0.4017903969113132
  0.8652318549835220  0.7649290766805441  0.3453807963664622
  0.8021366706872087  0.0211575823388814  0.6410433255548790
  0.7617264548990655  0.0394056649207070  0.5822978498127618
  0.1355037768148983  0.0432614627909840  0.9042448209879690
  0.2037842411034940  0.9510573449937115  0.9065067607799266
  0.6043542053992531  -0.1319802555122546  0.8790696515610048
  -0.1822043189098484  0.6065741335857214  0.6789274102058221
  0.0124850110786389  0.9057344270941000  0.6585251165519076
  0.1271597991873823  0.8530480334501832  0.6599911092485791
  0.8905224465167768  0.6403029917723873  0.3982025018489866
  0.8019981722446149  0.4952960927708439  0.4540946802078844
  0.8195367294265576  0.4271234769614425  0.4957235627285831
  -0.1957145505445849  -0.0464791124881035  0.7083127408374426
  -0.1187623168892777  0.0385265042593624  0.7230281262349951
  0.8403178081279429  0.2648265950628338  0.5041063033508881
  0.8318894665072065  0.1573144943237887  0.4945591918795788
  0.2373364724997681  -0.0748984840296221  0.4924025452535916
  0.1472078605697221  -0.0155795809760149  0.5249663103568899
  0.2166559084962870  0.0397446714423138  0.5939554450375546
  0.1195438226425972  -0.0372415739248483  0.6068317846539240
  0.7301027439437877  0.3710627292607235  0.8836347471253169
  0.6063195139549260  0.3638581914080035  0.9168677067828471
  0.7750460952149744  -0.0238338144627687  0.8814823448381103
  0.7834827946766708  0.0468214750888130  0.9243877911700070
  0.8330319466272520  -0.0077905799527355  0.5060361959284180
  1.0167178264621750  0.3481131361016434  0.8724141593854594
  0.7730036401998182  0.5169673937869236  0.6019855795084643
  0.9725853149707633  0.7895890582421934  0.8277803376121352
  0.6893313590779262  0.6159026856799142  0.6663555346771149
  -0.0755317850683513  0.5332265457261266  0.3976030999794100
  0.4417961866158238  -0.0749665948329433  0.4747905876449710
  0.4248273702147559  0.9410475630751272  0.8611257974223764
  0.5558444176004302  -0.0420999293111044  0.6912328648801874
  -0.3766565512959301  0.8969191025865484  0.3467912129411136
  -0.3131006234050784  0.9031102896889405  0.3985039095596806
  0.5908597980467183  0.0317169563431354  0.4660680249616375
  0.8907074367905452  0.8538345416953876  0.4729160292465142
  0.7862990501518132  0.8348442203772163  0.5135602022715019
  0.7378829151237628  0.8176395064612278  0.8865469498799990
  0.2655671732423468  0.3612341998207133  0.3783471075047407
  0.3661574494212330  0.3038422843006788  0.3997351151475046
  0.2877220210435280  0.4605090430460503  0.3887739072602316
  0.4944524183445403  0.3358312558990275  0.3835484176297899
  0.4080172046638075  0.4944419841923705  0.3765333263448583
  0.5136366991004441  0.4410055465435592  0.3912474866711359
  0.1985945685988095  0.5119702264477453  0.3979848790830657
  0.5947949544290336  0.6368019808400543  0.4917401437797555
  0.0114059455987731  0.8692537416316776  0.4297108325907323
  0.7181556819812046  0.8569072144087806  0.7520481084215127
  0.5545543733534449  0.5723556333238978  0.8883113062404109
  0.2144901409281779  -0.0048364396534155  0.7276430427154191
  -0.1206747319560393  0.4234271106396689  0.8903596143361330
  0.0395031943193310  0.8444453914041393  0.7610912975202412
  0.4013151431498713  0.1518356865323782  0.8811658050313536
  0.6180856304785366  0.1861811976819208  0.8634008834503611
  0.7883128842278520  0.0451637437848815  0.8873190326540208
  0.3826000255134760  0.3556491362757173  0.7562904054913501
  0.5638199640699313  0.2304616041150189  0.5030146230944594
  0.4068569051811894  0.7637995360212915  0.3824536069006194
  0.4564181951050951  0.7614396846364492  0.6393301176247191
  0.4162032404559196  0.7242404117936698  0.5408642133320645
  0.5068347069134586  0.4563885361913847  0.5297612727124076
  -0.0288105552593145  0.4028831846901501  0.7608407738498074
  0.5767339288713246  0.5777398712111802  0.7772417929773263
  -0.1164054986339681  -0.0004554439595378  0.3797724752183119
  0.4667893331587553  0.8979525859064620  0.8844271825585979
  0.2841071976989510  0.3153296953223939  0.8444197786875002
  0.3730446737908141  0.0136733080974300  0.8096293934283716
  0.0657110608509217  0.7007351170833036  0.5804783269972990
  -0.0170365228553591  0.4414614314594411  0.3724012360039943
  0.2620425945504054  0.5795201154455853  0.5165366383894526
  -0.0007982179572923  0.2524355214276399  0.7068525265848753
  0.7270363591775685  0.4220411598035810  0.7452843619061156
  0.5380238827161856  0.6078632711989255  0.6842417614629662
  0.3334208953952893  0.1539158574335467  0.6138071041711103
  0.2545523987118715  0.4441628948814454  0.6716742582753081
  0.8468902418122302  0.0493506528081297  0.5249234409864897
  0.8063268730699548  0.6844719217657224  0.7801550299567522
  -0.0448476268781698  0.5843479706485092  0.7197324276908383
  0.1610225517461388  0.3878522789499236  0.5527356983474628
  0.8921002434985951  0.1327238356578585  0.7679137119237084
  0.1957368395470977  0.7087804127694196  0.7787065256950486
  0.7974904524568097  0.7124017079001128  0.5608745581244722
  0.6772575443227958  0.1327273166632631  0.3792440363361149
  0.3291197181806239  0.4847074989269911  0.8920297800741707
  1.0639131963154171  0.6073430648715745  0.8877020308878549
  1.0421966964432015  0.3090462876253471  0.8457404657651408
  0.5987496731841989  0.2575024004801323  0.7675189433662795
  0.1969738873633352  0.5287321729939291  0.7842699364222153
  0.5795734209274598  0.0570497111250893  0.7463842820753468
  0.8006331841690827  0.5967707990777962  0.8753962076639842
  0.0307560228189065  0.1146079999232468  0.8644135070949147
  -0.2411471945919841  0.4543655897349572  0.5844586940884223
  -0.0381719095633025  0.1701533780135391  0.6122323987745102
  -0.0827568405155496  0.3237543493221269  0.5527080873400865
  0.2141171774911289  0.1843962843278501  0.7028560564538335
  0.5660914888100340  0.1594983880424567  0.6152251623990981
  0.3068036095460513  0.2352338869300798  0.5277869177706467
  0.0586111244980600  0.6691640692367156  0.4810353294969220
  0.4932811234483770  0.4526108621156100  0.6302850005095457
  0.3318659056571757  0.7301725499588895  0.8792652208533825
  0.1452193152888928  0.8229395985388837  0.9104035762300036
  0.1413763225662425  0.6156305001709113  0.6627782500661644
  0.9439771343610899  0.7747350288630279  0.8628200434435235
  0.2024565873786035  0.1266056972458326  0.4368869692432765
  0.0112446798818390  0.1644852852479972  0.3734585984603606
  0.6657323529457668  0.3388728557005000  0.6507546588913817
  0.2346810649914230  0.7905509004445654  0.6804825238811978
  0.8554052913014324  0.7535926471786790  0.3819076928389664
  0.7319483000401332  0.0238169415325935  0.6169109714959042
  0.0639883598673452  0.8719531604475809  0.6355638791398627
  -0.1125339588200161  0.5813478044019121  0.4202046166052766
  0.7805411786601550  0.4319506089290975  0.4638387250951068
  -0.1314908475371090  -0.0077281499772201  0.6970942941501090
  0.8037769943513946  0.2169184347724744  0.4821096042847511
  0.1533176564125435  -0.0435633737821045  0.4904425610145741
  0.1308677502498086  0.0209995722007447  0.5850812869238888
  0.6393973941973902  0.3528798710610895  0.8824312052646374
  0.7665893460353023  0.6088069840431005  0.6501505163215743
  0.3733745387470641  -0.1169673219579415  0.4758973114594501
  0.5479081159469059  0.9168201910730325  0.6621539483705570
  0.6057920686454527  0.8935382265666508  0.3825356625757936
  0.5144521049385917  0.0525003541456563  0.4784749483479519
  0.8143475511598222  -0.1213580368223865  0.4878881541083970
  0.2096595337394899  1.0126696140302418  0.9202972670730073
  0.6909765947841684  0.8626567223340083  0.8673659396900670
  0.3989577966790491  0.0636714811801438  0.3754931866683726
  0.6249009255169569  -0.3376791893182883  0.3895106710250761
  0.1668695621914893  0.7080599784482633  0.3926422872526351
  0.8414973077362686  0.2912484998559343  0.3871223609635627
