combine
1.000
11.0985002518  0.0000000000000000  0.0000000000000000
0.0000000000000000  14.4173002243  0.0000000000000000
0.0000000000000000  0.0000000000000000  26.7964000702
Pt  H  C  O  K  
96  170  6  81  4  
Direct
  0.4999999886561249  0.3333300219343480  0.0018699899937576
  0.1249999521128992  0.1666699702868031  0.0018699899937576
  0.2499999943280624  0.0000000000000000  0.0018699899937576
  0.3750000365432257  0.1666699702868031  0.0018699899937576
  0.4999999886561249  0.0000000000000000  0.0018699899937576
  0.6250000308712881  0.1666699702868031  0.0018699899937576
  0.7499999829841874  0.0000000000000000  0.0018699899937576
  0.8750000251993506  0.1666699702868031  0.0018699899937576
  0.0000000000000000  0.3333300219343480  0.0018699899937576
  0.1249999521128992  0.4999999922211510  0.0018699899937576
  0.2499999943280624  0.3333300219343480  0.0018699899937576
  0.3750000365432257  0.4999999922211510  0.0018699899937576
  0.0000000000000000  0.0000000000000000  0.0018699899937576
  0.6250000308712881  0.4999999922211510  0.0018699899937576
  0.7499999829841874  0.3333300219343480  0.0018699899937576
  0.8750000251993506  0.4999999922211510  0.0018699899937576
  0.0000000000000000  0.6666699625079541  0.0018699899937576
  0.1249999521128992  0.8333300141554991  0.0018699899937576
  0.2499999943280624  0.6666699625079541  0.0018699899937576
  0.3750000365432257  0.8333300141554991  0.0018699899937576
  0.4999999886561249  0.6666699625079541  0.0018699899937576
  0.6250000308712881  0.8333300141554991  0.0018699899937576
  0.7499999829841874  0.6666699625079541  0.0018699899937576
  0.8750000251993506  0.8333300141554991  0.0018699899937576
  0.0000000000000000  0.2222199683821562  0.0864100026098289
  0.3750000365432257  0.7222199606033073  0.0864100026098289
  0.6250000308712881  0.0555599860957249  0.0864100026098289
  0.4999999886561249  0.2222199683821562  0.0864100026098289
  0.1249999521128992  0.7222199606033073  0.0864100026098289
  0.2499999943280624  0.5555599783168760  0.0864100026098289
  0.3750000365432257  0.3888900080300730  0.0864100026098289
  0.0000000000000000  0.8888900002512240  0.0864100026098289
  0.8750000251993506  0.7222199606033073  0.0864100026098289
  0.7499999829841874  0.8888900002512240  0.0864100026098289
  0.4999999886561249  0.5555599783168760  0.0864100026098289
  0.6250000308712881  0.3888900080300730  0.0864100026098289
  0.4999999886561249  0.8888900002512240  0.0864100026098289
  0.6250000308712881  0.7222199606033073  0.0864100026098289
  0.8750000251993506  0.3888900080300730  0.0864100026098289
  0.7499999829841874  0.5555599783168760  0.0864100026098289
  0.2499999943280624  0.8888900002512240  0.0864100026098289
  0.7499999829841874  0.2222199683821562  0.0864100026098289
  0.8750000251993506  0.0555599860957249  0.0864100026098289
  0.3750000365432257  0.0555599860957249  0.0864100026098289
  0.2499999943280624  0.2222199683821562  0.0864100026098289
  0.0000000000000000  0.5555599783168760  0.0864100026098289
  0.1249999521128992  0.3888900080300730  0.0864100026098289
  0.1249999521128992  0.0555599860957249  0.0864100026098289
  0.2523434344785262  0.1158631724256199  0.1734713504210383
  0.8723240025002312  0.6184283248795910  0.1723518618135607
  0.6199287534803747  0.9494418889417703  0.1750607168578890
  0.8804449295043443  0.9392759285386590  0.1727146529188783
  0.3834071182194069  0.2835438973664350  0.1714972630637284
  0.1203579946203412  0.9444237957152687  0.1676568492682035
  0.0098149334800739  0.4556732882365270  0.1689144442515489
  0.7456371544666904  0.7828785628654698  0.1729763496125248
  0.3714252113506448  0.9484084938075766  0.1701096318109262
  0.0013326737815410  0.7804717489987854  0.1691320577251769
  0.7548555371381155  0.1086844730790143  0.1704291829774101
  0.3791749375342389  0.6158884033942715  0.1724296622268453
  0.1314877196550338  0.2814325332256860  0.1672095174076328
  0.7574150140814434  0.4527658386691421  0.1693160455962000
  0.8720027928575660  0.2826371751579340  0.1705694569392166
  0.5000993101117261  0.1165365976820099  0.1719896880896808
  0.2541454881476025  0.7803337916372087  0.1709548807712591
  0.5032436530597151  0.7827202023357951  0.1740595572532511
  0.5007710610808529  0.4534593036899474  0.1715231480258197
  0.0000218960575291  0.1099135969041624  0.1703764650639479
  0.1288573309234332  0.6234114415992463  0.1727834255224807
  0.6263387396934635  0.6186795516865277  0.1720828313288272
  0.2576058425764606  0.4518362516041928  0.1706678740957411
  0.6170214098602521  0.2872350700806097  0.1700968125479245
  0.8780696430600589  0.5130547911829406  0.2601732179074742
  0.7585906980390920  0.0178653059375065  0.2586510959137307
  0.3827899324515471  0.1851492891991576  0.2604794152578087
  0.2636202700743718  0.0182248344566715  0.2594311265016171
  0.6415191648750258  0.8494210959871021  0.2648782203730929
  0.8815647117017620  0.8430534880596994  0.2629478906472906
  0.1367487371056150  0.8509754034129980  0.2586308189624023
  0.7653536633044057  0.6843263352157203  0.2606586866146856
  0.1301665228656187  0.1789300633035303  0.2574094320666156
  0.0066535140266383  0.3446375740809855  0.2495655637279820
  0.3785874301997283  0.5159532147677924  0.2588166411843035
  0.5082407059444961  0.6725613858450945  0.2601009855368971
  0.2579498675089628  0.3517353294102062  0.2545774841258027
  0.5106969840885254  0.0116881047962072  0.2625589545710753
  0.2582618300643935  0.6866834991001707  0.2639453293789852
  0.0104915682261768  0.0173146227252211  0.2596956419694200
  0.0201012292957166  0.6868510668876492  0.2570051635465300
  0.7568064481899478  0.3493461561347587  0.2518202422908383
  0.5049439496017581  0.3539835105325893  0.2575772294307473
  0.8828329692843770  0.1778261995528694  0.2594942610866946
  0.3899910623147498  0.8471445429439270  0.2574218692185885
  0.6251153750773480  0.1816700632054133  0.2531253151479528
  0.6322995515778684  0.5130442600850487  0.2562878956392870
  0.1283608888659484  0.5203676871731550  0.2619382274227858
  0.2577402453215304  0.3322808091438352  0.3301602783889906
  0.3774280848280045  0.1934628690813313  0.3637615583796308
  0.5100526747460230  0.3282707517405388  0.3373600167976791
  0.4097064190598660  0.4870377167470636  0.3430589757324589
  0.5827166336957202  0.4464051060303479  0.3976590094185912
  0.4961696391101937  0.3939219568257097  0.4442491905522274
  0.5716009554868567  0.2732618725147817  0.3934960045669038
  0.3618801488560237  0.2314738424726140  0.4239018410249918
  0.1844735871108304  0.2904655837603830  0.3867406106473559
  0.3855731970097463  0.5433712713630031  0.3952286378526574
  0.6098156945036183  0.7571184952854086  0.5149735348647153
  0.7451305457022235  0.7282680052679411  0.5192864198715533
  0.0954799450068162  0.8897363848246294  0.4203478128775351
  0.0825864402851497  0.9262582716278547  0.3636786831130210
  0.7034746947303754  0.9045299756898952  0.7986281567574862
  0.6684698288308597  0.9018158587615367  0.7388208465515806
  0.4711903019195641  0.5418353122960845  0.8935899566982872
  0.3451851361699673  0.4945354757462003  0.8848831757617142
  0.2542883698671161  -0.0700076200534976  0.7578980929451551
  0.2269312276396555  0.0395472302046539  0.7674181173115511
  -0.1303742445890675  0.4131455285061321  0.8787094078687658
  -0.0590274928266772  0.3303177112018018  0.9020759986816984
  0.0833911336488816  0.7812322253937708  0.7848149883195499
  0.0034365392561769  0.8786358144327986  0.7756832833569820
  0.4025656018321377  -0.1578590022675692  0.5132992161770386
  0.4914317899317452  0.1772938999488793  0.8872066001596519
  0.3878855283263886  0.1340317717975400  0.9209544036120151
  0.6612247066633886  0.2635712168839502  0.9110964446172258
  0.7135447065756131  0.1665830939798306  0.8808098622153404
  0.2790699947948079  0.3908571283687477  0.7810368245350575
  0.2689011972420308  0.3006387407743982  0.8167337223718593
  0.5311712529126529  0.2174378301158119  0.5515152624488225
  0.5838584208662837  0.2582636993453318  0.4962541533960890
  0.4339869025113392  0.7619931939811843  0.3921646642149707
  0.4079792668983034  0.6869112265559996  0.3531658135610664
  0.4845449842493645  0.7475785119348380  0.6641073410002711
  0.4977264965511076  0.8582789597419788  0.6615451445514894
  0.4799356737263771  0.7562560926436822  0.5768678891904836
  0.4719175865991937  0.6669451553969330  0.5437707815052504
  0.6780866312256418  0.4743346327819177  0.5502612119602507
  0.6239876578708751  0.4154594522769482  0.5076310134780905
  -0.0180922193489552  0.3830112959979030  0.7475356333284694
  0.0730261723757273  0.4123795076056735  0.7028079386209671
  0.5570029426991628  0.6037119369221291  0.7978410559848172
  0.4373185040215525  0.5517215058054467  0.8015006298433617
  -0.0556177443794614  0.0239647860504185  0.3711128473656117
  -0.1434011278273276  -0.0396961030009894  0.3401853211781803
  0.4495618334640114  0.8549821920767060  0.9209176358597267
  0.2835713447219656  0.2114028270676442  0.8687499633500677
  0.1418975712186504  0.2151736952506045  0.8664526301322202
  0.3954208003093249  -0.0139772408748451  0.8104202942898485
  0.4520654573473818  0.0435487552962076  0.8506311735488981
  0.0497516571133516  0.8363115771340898  0.6198197282653137
  0.0575568948693223  0.7234131799392690  0.6226535055712604
  -0.0601326323610040  0.4431942751757627  0.3355909735539667
  0.0253823298561724  0.4301805785001697  0.3798285698428160
  0.3768298700648050  0.5373997122388551  0.5175717922133742
  0.5074166989442244  0.5195503328129997  0.5325630296537622
  -0.0248637107482378  0.1831573866408966  0.6430340068389415
  -0.0611798041172163  0.1982013412458254  0.6993759981006331
  0.6078067692529852  0.3430976932881460  0.7738835847827832
  0.6044768606291594  0.4556215202988141  0.7685930647454421
  0.5059117090788333  0.6145786018706706  0.7153827562650256
  0.4422170483893992  0.5588569345542085  0.6743244636466996
  0.2945974113006597  0.2158479291743468  0.6506939697915124
  0.4068479211024637  0.1846211443883028  0.6158236521200302
  0.1167522696311915  0.5107834476241233  0.6425036344097059
  0.0473170424188466  0.4186853126444539  0.6298806805347873
  0.6451181110653925  -0.0545718761321141  0.6659020905552117
  -0.2307476567552138  0.0664635404543311  0.4817004631101427
  0.7071378465416669  0.7010034624419915  0.8263321106712650
  0.7156082023795877  0.7641228615903978  0.7809576364502983
  0.8337587006045464  0.6495966712141293  0.7551367341280695
  -0.0761510129139230  0.5653058184474142  0.7451591187319875
  0.0988580075512505  0.4195608400458133  0.4672591548379039
  0.1576350295001576  0.3592433936119597  0.5076941823103054
  0.7745157248256016  0.0803047242887122  0.7873182118878006
  0.8495169307286242  0.1781589172548920  0.7889009320475570
  0.2402455393707414  0.7094094828282309  0.8092730406916240
  0.1851634504731128  0.6312035188850236  0.7791225611949961
  0.4860200375654507  0.1292845551179121  0.4768617676823866
  0.8931260281579372  0.7498663997353850  0.5911375179054704
  0.7913228684997884  0.6685020259864881  0.5987517208754769
  0.6674166320443746  0.0393584333524241  0.3746217209886983
  0.6142001502765601  0.1145124596987546  0.3319186224492586
  0.1882382597649778  0.3733974087136261  0.8941166287498699
  0.1850667432355899  0.4694622824731128  0.9237400777101942
  0.8938385745939943  0.6111128984780353  0.9113421888172955
  0.9769822722886753  0.5831100198517353  0.8720466142646895
  0.8076924600732566  0.3572254422169431  0.7725005465349994
  0.4532496967582760  0.2935636195094560  0.7884077792036907
  0.5610102406575322  0.2612844934553549  0.8251328922346163
  0.1953806774521913  0.4912152709814191  0.8268188105811720
  0.1334206901657584  0.4716604834335523  0.7724977606906397
  0.5648840690419599  0.1518503870932809  0.7625109430808517
  0.5711792175678760  0.0550133853676137  0.7871318235040283
  0.5590807606544546  0.7340675657750512  0.8837749691883610
  0.6589006377338216  0.6878786923979393  0.9174411617267852
  -0.0240533814518501  0.1011363841229016  0.8623998871773644
  0.0167215336387366  0.1732664160235511  0.9048148765946916
  0.6785839354536707  0.3898642149260580  0.6259865667722434
  0.0400442119671007  0.1268502244974783  0.5670229687194916
  -0.0511755549681484  0.2066567165729297  0.5664565300463775
  -0.1323810453094069  0.3484541707422145  0.5912284126448241
  -0.0314671436209013  0.3832099380567798  0.5526278954749713
  0.2617988576725727  0.2544077488251158  0.7229622719338437
  0.1524821086367532  0.1945205791562244  0.7024536882599062
  0.6360349195969192  0.1426352007038020  0.6218055130110482
  0.5950472373984868  0.2463962829332339  0.6370408844762628
  0.3606672012870206  0.2737120811321385  0.5129525402587933
  0.2627279095684202  0.2778111650716123  0.5561496817168833
  0.1533648335795589  0.5081080368606721  0.5239682023337997
  0.0817607229366716  0.5991044091696005  0.5178286071057467
  0.4114162264815420  0.4920668648588433  0.6097633855627849
  0.3053307370111024  0.4422345000039398  0.6387335961159298
  0.3487537252587117  0.7723165258938499  0.8664327431586489
  0.3265866508506087  0.6688479856614898  0.8808502825216936
  0.0273227409487889  0.8277752965069743  0.9136962682882224
  0.1651486768316046  0.7814545488281263  0.9030821239570851
  0.1507398304585043  0.6625557128996936  0.6864832657002014
  0.0102104735981441  0.6362455734562031  0.6880052811087322
  0.8615263135169324  0.7371143061644871  0.8775163784089783
  0.2297658256021052  0.1829720576362681  0.4837395486759969
  0.2011054728081851  0.0840208702568524  0.5001200790588127
  0.1061805614509830  0.1097493111944143  0.3490032151035204
  0.1082488063200388  0.1096660030242775  0.4068250688242032
  0.6077740741057339  0.3766195288038842  0.7059039592574204
  0.5079195956936384  0.3954919814938406  0.6575790920436307
  0.3252251918645129  0.8135326873287382  0.6802428173690105
  0.2474281674007827  0.7643389494190157  0.7242604088331611
  0.9227109643971148  0.7847856779891222  0.3569597050477463
  0.9027672733056900  0.6950147868954786  0.3356387726985027
  0.8084921257666966  0.0403103823363862  0.6594117926665257
  0.8065149512113829  0.0934412611682579  0.6077333037362154
  0.1646485948859291  0.0573061687865430  0.8999219343391456
  0.1815553485141563  0.9483978343985605  0.9076215006599755
  0.6451823410950206  -0.0933899980962194  0.8812795397827387
  -0.2037900575019744  0.5974782129306900  0.6812359975585239
  0.0510509127850953  0.9589253010836325  0.6613015410867367
  0.1684559593533171  0.8951420155382525  0.6722214705150711
  0.9181204710471923  0.6662217049909811  0.5306687963326062
  0.8696906228960581  0.4945939715107941  0.4154631846977386
  0.7737378620870213  0.5091178300933511  0.4616988455721194
  -0.1537669737154999  -0.0461447674911203  0.7280019977121651
  -0.1000468664872009  0.0511866293979344  0.7319442564343536
  0.7894573922074719  0.3175943021067466  0.5037544503155811
  0.7742206551562137  0.2190615129645983  0.4814177444397186
  0.2159263681154877  -0.1494196534222893  0.4961798089059791
  0.0884588590193323  -0.2086291501879327  0.5073541266992484
  0.2376960588501268  0.1028113875787703  0.5930692787003677
  0.1752561601270891  0.0106056609227213  0.5801346189217413
  0.6835300189383376  0.5275363060957049  0.8833399675736119
  0.6562693256972909  0.4435101351168858  0.9168591531861178
  0.7852255528296802  0.0269386409700612  0.8837273191944568
  0.8231202800503052  0.0934368643533887  0.9302740619484244
  0.8761515176451815  0.1106996640404282  0.5120260602900304
  0.8895709892963936  0.3282273644495572  0.8164868399965154
  0.7673614101525787  0.4686956850361411  0.6218983930170744
  0.9228249711341777  0.8166696004259472  0.8467926717042271
  0.6582773086944879  0.5960923006663174  0.6621535500857137
  -0.1057680890091089  0.6212127177323069  0.4779231812687448
  0.4214956381463619  -0.0526114078779842  0.5043188428257832
  0.4668868287370271  0.9087639763731240  0.8668122482740137
  0.5647850219027013  0.0055934180148430  0.7041635952018822
  -0.4421053989077677  0.8731189947881648  0.3407753038720713
  -0.4166986125309987  0.9102593644252963  0.3992022547460107
  0.5702152908518979  0.0675750499221710  0.4477002963297846
  0.7898039927492322  0.9435998071796080  0.4241662212171609
  0.7185074536360609  0.8807613098461735  0.4572695750697734
  0.7788501742925193  0.8753053594479554  0.8806634739172957
  0.2693680067462392  0.3218368840845364  0.3745640602433761
  0.3788038148413929  0.2601238489699334  0.3864344028851751
  0.2749035238076580  0.4175000247310345  0.3888224732055299
  0.4983163816663455  0.3121553995258158  0.3794315609844570
  0.3915934203267808  0.4694210514734977  0.3838283696785855
  0.4952681772664299  0.4087122680478202  0.4037979164124056
  0.1773478074463956  0.4603174738994674  0.4000987098197172
  0.6886013980727276  0.7614510424425192  0.4956084131192358
  0.1301613876492645  0.8872216497538502  0.3870993241303170
  0.7222409680443055  0.8792445233840909  0.7646729620590810
  0.3935224824085271  0.5515516879642482  0.8758112104767077
  0.2674696324774651  -0.0178384362050341  0.7802802528333779
  -0.0546735585829795  0.3775975906171655  0.8750624655278550
  0.0177080593000055  0.8233088849806702  0.7979622277463783
  0.4069052527495839  0.1461451827540271  0.8852201629083588
  0.6424883804497388  0.2158211353992301  0.8819568825994023
  0.8170262414716215  0.0888767101860233  0.8927250870576159
  0.3111618095282657  0.3276283253669527  0.7873165264151296
  0.5128974427402283  0.2373172711235624  0.5161946039864735
  0.4041533977955736  0.6948125264129588  0.3894519745660041
  0.4550992921030768  0.8015492382840411  0.6471055666086933
  0.4878517913464809  0.7354760339337273  0.5415696767133573
  0.6379758784932805  0.4792985240019519  0.5179055871625676
  0.0196825645126756  0.4364594479272920  0.7313090807407749
  0.5064528871446738  0.5616971606688719  0.7791429430223524
  -0.1336932362513892  -0.0093218134400420  0.3724706037211179
  0.4562402572706855  0.8442381621619430  0.8835635327011777
  0.2122683932108680  0.2525012958365269  0.8650093601594372
  0.4784595411113112  -0.0072946520890742  0.8283470992241507
  0.0244136489032431  0.7769915843272172  0.6033124103554011
  -0.0583395182511249  0.4159686431300059  0.3710916789475214
  0.4311320613993734  0.5497442846228043  0.5464614283761404
  0.0081513038921928  0.1898447038639574  0.6789275726418208
  0.6538990230975560  0.3997206754484302  0.7602733858402176
  0.4978439672967417  0.6130452378596515  0.6786938530383071
  0.3154593686684985  0.1926416010827609  0.6154165763273334
  0.1299958218558411  0.4452700909897081  0.6379490086360847
  0.8260908115412292  0.1171285658568569  0.4816001778594015
  0.7201174961728535  0.6973935604499195  0.7898162145532572
  -0.1118962844911038  0.6194218967673329  0.7301204650268522
  0.0910907769575476  0.4035956632846298  0.5025248360459896
  0.8578367789247825  0.1085640752324692  0.7873807045993445
  0.2010541672815750  0.6969865527224873  0.7758973423382248
  0.8352196710448878  0.7041940377774810  0.5736239977359494
  0.6374831778241866  0.1010637650552737  0.3702560457415184
  0.2044404983125542  0.4415837441374437  0.8885168439315027
  0.8915293249820169  0.5983895704799942  0.8765240342422121
  0.8768045640330323  0.3152326121599277  0.7805233288578787
  0.5357735031213435  0.2577713611204514  0.7873944499083799
  0.2035699997964656  0.5013108529929997  0.7892460610565197
  0.5923426964768309  0.0862277600562597  0.7573495356291913
  0.6151611495699799  0.6809864057940633  0.8839271560302246
  0.0425735953759489  0.1363416778397177  0.8763954224327537
  -0.2633476924439385  0.4166583344484429  0.6032574119079925
  -0.0493364268033597  0.1403589140627923  0.5677410923274983
  -0.0560418549433402  0.3312051542321159  0.5756539681371039
  0.2374065862342678  0.1887416351997428  0.7121279087156716
  0.5783526618525746  0.1922229021581297  0.6132012926905581
  0.2703598373675175  0.2876738323871154  0.5199169279605407
  0.1690568590018005  0.5744860224967772  0.5197511225841334
  0.3867338867072493  0.4695154883707544  0.6424523679486739
  0.2795329370557829  0.7264168345921015  0.8670315729961631
  0.1168598533472711  0.8331447986187165  0.9180521473613149
  0.0846470692513284  0.6291372557125476  0.6666542065128478
  0.8878952970336499  0.8032591806807770  0.8814373774694771
  0.1940549108471391  0.1250861120420040  0.4711347757880289
  0.0573820676173533  0.1216214833720809  0.3778450886677044
  0.5828531238399408  0.3610260057099365  0.6680619582631268
  0.2537583519397799  0.8213968903581584  0.7043805255427030
  0.9250008233170961  0.7204190454391605  0.3682078287699769
  0.7543499308874790  0.0645497399042465  0.6333425907860515
  0.1294949094736389  0.9416317124906887  0.6477610235788082
  -0.0464482977433274  0.6568311532237501  0.4963765838565764
  0.8133904209026708  0.5390609035525818  0.4337172203785975
  -0.0952369186213762  -0.0048207788017659  0.7102517267968953
  0.7479047050662337  0.2865786739486869  0.4751524631384924
  0.1492737664200446  -0.1869391758491217  0.4821359502938475
  0.1870250532871191  0.0716043797132013  0.5664328716706876
  0.6682332742747994  0.4613238580958334  0.8814308510629619
  0.7450746246871387  0.5922297105049403  0.6488780423657192
  0.3669489900348915  -0.1029399301471547  0.4943457648265038
  0.5757294122387110  0.9406547091834913  0.6871994964942528
  0.5287058601767683  0.8705463807742397  0.3767739508348311
  0.4899782295466488  0.0673919448013142  0.4622515183102933
  0.7145962567252027  -0.0575201740824027  0.4424546236561510
  0.2239206565046428  1.0078373629418880  0.9123415006700014
  0.7212434910655393  0.9161976355140609  0.8642109546331742
  0.3362755443731871  -0.0031571688174517  0.3895332732812902
  0.6809870950333332  -0.3168721130326472  0.4029884633051533
  0.1603309787114168  0.6771049662991930  0.4133379912370196
  0.8395777731129717  0.2305719383159617  0.3803008789017508
