1-pos-1
1.000
11.0985002518  0.0000000000000000  0.0000000000000000
0.0000000000000000  14.4173002243  0.0000000000000000
0.0000000000000000  0.0000000000000000  26.7964000702
Pt  H  C  O  K  
96  168  6  81  4  
Direct
  0.0000000000000000  0.0000000000000000  0.0018699899937576
  0.1249999521128992  0.1666699702868031  0.0018699899937576
  0.2499999943280624  0.0000000000000000  0.0018699899937576
  0.3749999464409617  0.1666699702868031  0.0018699899937576
  0.4999999886561249  0.0000000000000000  0.0018699899937576
  0.6249999407690242  0.1666699702868031  0.0018699899937576
  0.7499999829841874  0.0000000000000000  0.0018699899937576
  0.8749999350970866  0.1666699702868031  0.0018699899937576
  0.0000000000000000  0.3333300219343480  0.0018699899937576
  0.1249999521128992  0.4999999922211510  0.0018699899937576
  0.2499999943280624  0.3333300219343480  0.0018699899937576
  0.3749999464409617  0.4999999922211510  0.0018699899937576
  0.4999999886561249  0.3333300219343480  0.0018699899937576
  0.6249999407690242  0.4999999922211510  0.0018699899937576
  0.7499999829841874  0.3333300219343480  0.0018699899937576
  0.8749999350970866  0.4999999922211510  0.0018699899937576
  0.0000000000000000  0.6666700318690679  0.0018699899937576
  0.1249999521128992  0.8333299447943854  0.0018699899937576
  0.2499999943280624  0.6666700318690679  0.0018699899937576
  0.3749999464409617  0.8333299447943854  0.0018699899937576
  0.4999999886561249  0.6666700318690679  0.0018699899937576
  0.6249999407690242  0.8333299447943854  0.0018699899937576
  0.7499999829841874  0.6666700318690679  0.0018699899937576
  0.8749999350970866  0.8333299447943854  0.0018699899937576
  0.0000000000000000  0.2222199683821562  0.0864100026098289
  0.1249999521128992  0.0555599860957249  0.0864100026098289
  0.2499999943280624  0.2222199683821562  0.0864100026098289
  0.3749999464409617  0.0555599860957249  0.0864100026098289
  0.4999999886561249  0.2222199683821562  0.0864100026098289
  0.6249999407690242  0.0555599860957249  0.0864100026098289
  0.7499999829841874  0.2222199683821562  0.0864100026098289
  0.8749999350970866  0.0555599860957249  0.0864100026098289
  0.0000000000000000  0.5555599783168760  0.0864100026098289
  0.1249999521128992  0.3888900080300730  0.0864100026098289
  0.2499999943280624  0.5555599783168760  0.0864100026098289
  0.3749999464409617  0.3888900080300730  0.0864100026098289
  0.4999999886561249  0.5555599783168760  0.0864100026098289
  0.6249999407690242  0.3888900080300730  0.0864100026098289
  0.7499999829841874  0.5555599783168760  0.0864100026098289
  0.8749999350970866  0.3888900080300730  0.0864100026098289
  0.0000000000000000  0.8888900002512240  0.0864100026098289
  0.1249999521128992  0.7222199606033073  0.0864100026098289
  0.2499999943280624  0.8888900002512240  0.0864100026098289
  0.3749999464409617  0.7222199606033073  0.0864100026098289
  0.4999999886561249  0.8888900002512240  0.0864100026098289
  0.6249999407690242  0.7222199606033073  0.0864100026098289
  0.7499999829841874  0.8888900002512240  0.0864100026098289
  0.8749999350970866  0.7222199606033073  0.0864100026098289
  0.8665074169494464  0.2841318689331027  0.1671550838831228
  -0.0072664416516025  0.4525728925033051  0.1716610379584345
  0.1243487778879108  0.6159548661220425  0.1725354294602265
  0.1168842515086314  0.9546034726392904  0.1701807058841230
  -0.0048923324204271  0.1224007845605976  0.1714285288757340
  0.7440904858168235  0.7855612283158855  0.1723860691323647
  0.1249900905192139  0.2860801222928169  0.1688992002337357
  -0.0080912846477105  0.7907628402288843  0.1696814023036066
  0.2457997255131440  0.7844321704099840  0.1698274024450342
  0.8588178897733617  0.9533719047296429  0.1701057650937654
  0.3681511267468168  0.9467088577093633  0.1711051097232621
  0.8692469574288071  0.6216954624273413  0.1738274935885906
  0.2447267446932293  0.1142486339587878  0.1711970321193133
  0.4912036942753444  0.1196543555215975  0.1735150476563734
  0.6117851523316212  0.9557003425770716  0.1714518010950756
  0.2384596950719330  0.4525461655298769  0.1727877309739481
  0.7401784361871486  0.1171990695353671  0.1737472394352579
  0.7481244464407140  0.4572256404003724  0.1701642581113310
  0.6234109902531975  0.2879579807183748  0.1676321747970705
  0.3739694764999311  0.2876156288686380  0.1717631206931614
  0.3622254555923440  0.6100592095304752  0.1710298306337309
  0.4937408987589351  0.7863262777099053  0.1700526799220157
  0.4957465714620006  0.4527383733327865  0.1734763988342448
  0.6129615047309359  0.6183838293089905  0.1726398516062114
  -0.0047675285218305  0.0209894117963887  0.2563399462205720
  0.1068609107890636  0.5162283520222219  0.2589465574264436
  0.8668183677375442  0.8496852279217054  0.2582162703748719
  0.2316822661677168  0.3452988594778125  0.2536728621901511
  0.8687968145908872  0.1812759495772304  0.2583601292510606
  0.6226701814129521  0.8487777355135258  0.2572107815618442
  0.7423431321600216  0.3403395544631684  0.2567003323199996
  0.2437741131970697  0.6776667451394748  0.2587544587457806
  0.1171453406408797  0.8504588744038116  0.2551734413423752
  0.7445147747921952  0.6845530068358681  0.2579891424702259
  -0.0066441725933232  0.6856400983756270  0.2561366070038964
  -0.0199867693442656  0.3549451435626507  0.2546641360676276
  0.2369288410453050  0.0135575362695543  0.2575122443844188
  0.8613666439525952  0.5155164084169483  0.2626672752370004
  0.4874839835249388  0.0142996868409883  0.2596391320316659
  0.3699004965769297  0.8522261369497532  0.2576029112125612
  0.6170012920339752  0.1794711888248571  0.2589983850785297
  0.3635223861391236  0.1810289808768077  0.2577307578968556
  0.1111287438408598  0.1866258505781125  0.2599717321188661
  0.7388880147090144  0.0123235050346346  0.2603978864519140
  0.3631447954372339  0.5162745181275014  0.2659305850573835
  0.6163121061596262  0.5106340698719439  0.2569570630592771
  0.4924207431282115  0.3440165501402543  0.2596275647204156
  0.4973290717189295  0.6834058090913054  0.2586172186840423
  0.4751212862697175  0.8516152964620760  0.4805187667958227
  0.4254605507563214  0.7545806975472211  0.4703275511704186
  0.1242919960628261  0.9781508399978337  0.4726677685964802
  0.2403890395251646  0.9867061130712282  0.4304123172808682
  0.8292107076185740  0.6219981850059170  0.8795309753458272
  0.7267065713218259  0.6106828433426396  0.9179958009268668
  0.6932434976115049  0.6278692573483887  0.7124789497762377
  0.5928570886262634  0.6438328691286364  0.7477202589045557
  0.2930930192728006  0.2020069208027750  0.7612847993595335
  0.2093219350446219  0.1765796842261156  0.8037857570895434
  0.1890018993475985  0.5326914363519738  0.9108041712790355
  0.0614481772336216  0.5533836454173838  0.9046966836511730
  0.1619984246167317  0.8520094316476930  0.8304241562823448
  0.2060445289830146  0.9395363993786622  0.8006661016887806
  0.4477528596797612  0.1085121825557294  0.3512770841769920
  0.5471069422929650  0.1214475173964142  0.3878531141449117
  0.5384545124491736  0.1619815513700581  0.9106108068164053
  0.4306479197966260  0.2091199995279549  0.8827574424747513
  0.5574544194380301  0.1699413568270171  0.8144412414401272
  0.6798104498557218  0.1891449797309331  0.7806877251308281
  0.1132528191451944  0.3436328651497263  0.8332477732720069
  0.1353575426514367  0.4370180039172981  0.8644279704556267
  0.3162579289152816  0.4108066251348085  0.5633224993415070
  0.3847994015954868  0.4468941419587332  0.6090804127249391
  0.6229754559476307  0.3754350831147241  0.5279503364719845
  0.6943335093721514  0.3510393217566313  0.5759302484949357
  0.7735463885138549  0.8602781149965402  0.3345184604430746
  0.6829737957225930  0.7939213041709232  0.3546142831613977
  0.1028530328694514  0.8893184263368229  0.6805810999396638
  0.2293582661393511  0.9256652270378843  0.7033039432135683
  0.7759435367948295  0.9979595104255083  0.4024400566512184
  0.6955203934917299  1.0598103053681722  0.4423332462475634
  0.7104084227165075  0.1708922868615386  0.3960896769526692
  0.6817163185064496  0.2162868011130288  0.3459990089680282
  0.8236014800664185  0.4129819642698803  0.8418904114806203
  0.9523827603901446  0.4147297202302875  0.8094493983436825
  0.0324318107161932  0.7085735313662723  0.7618923231820379
  0.0855468753939088  0.6013471279031330  0.7575615345165463
  0.1437753206647181  0.3289245566869124  0.3702737218434859
  0.0872471372555905  0.4060016603201589  0.3346693853542345
  0.4376845280975840  0.7775051765036165  0.8978519568587867
  0.4251314754112622  0.8860651735453643  0.8865155244050175
  0.4323445535284625  0.4375188817576463  0.8295435227592529
  0.3520850807086522  0.4806536369077004  0.7834500872431298
  0.5999482909792332  0.8596091539532136  0.8733054771608857
  0.6739612389508997  0.9297165843996151  0.9052528020051669
  0.0739435235645376  0.8580483392410339  0.7593386262331666
  -0.0609254631940324  0.8538185522385259  0.7529114842159996
  0.2611040219717986  0.5726020602862781  0.4882043698492354
  0.2468562461180878  0.5505997406588250  0.4354909184416018
  0.8342125175244661  0.6372311565736339  0.3471994970416398
  -0.0779459306008212  0.5632601405090240  0.3430323778649045
  0.8619684694468926  0.1870776719245960  0.8199170427647678
  0.8255557986417128  0.2801004942585268  0.7943715686262004
  0.7289608255212563  0.3959321764749581  0.9174178235732138
  0.7240134986343562  0.4871972820099221  0.8850139045421035
  0.6801953763776009  0.7519173209716761  0.6247317811550741
  0.5804054111054572  0.7055894144074337  0.6579880757493258
  0.3328339725992166  0.8416728206607884  0.6087213391077817
  0.4762270012691842  0.8187234057944511  0.6151691641121614
  0.2086457514135243  0.6972022959442840  0.6228583534682026
  0.1184290105040839  0.6800505411460304  0.5774044199767957
  0.4022233390746643  0.2526821645747394  0.6075783541127913
  0.3828977549656570  0.1471194696511207  0.6038137353156496
  0.7875751333773556  0.2193955819667740  0.6040202149952151
  0.8457341792894655  0.3084563173904440  0.6293608869594000
  0.9619050157672042  0.9199710991968317  0.3349059266576706
  0.0724865131006799  0.9642628267786512  0.3593854210107008
  0.7349436120774157  0.8737967422407380  0.7375427713134787
  0.6174039659267181  0.8512289739874555  0.7069216249225307
  0.7998775128702835  0.8260411839400555  0.6540897951173626
  0.8733811166177984  0.7531599423100181  0.6243755151799809
  0.2764932259115201  0.4117187970806929  0.4723967367533605
  0.4054309141336663  0.3967781778836991  0.4720437598394758
  0.5813595783316357  0.9808187162369072  0.7213674289329912
  0.5584985023354576  0.0934185404372678  0.7370771605087693
  0.4110266634503298  0.7938418499331548  0.8097791512088752
  0.4381250174149768  0.6995278160748484  0.7924729184244301
  0.2137339003812951  0.2103156951735893  0.3382289297352006
  0.0886882679612825  0.2012244867739000  0.3710603088344541
  0.7202945094409012  0.6933039700007575  0.5066729475389067
  0.6158853448412011  0.7300073601131521  0.4709132921564795
  0.9071497162210840  0.0946131712649571  0.3747619433950722
  0.9106897086803019  0.1788231095274411  0.3359117546058050
  0.4309436296606202  0.6296888564336450  0.8629189205051085
  0.3994488525943847  0.6227970451892256  0.9235444321836955
  0.9085647416158398  0.8719967456258196  0.8983505796388989
  0.7972423913731013  0.8116980971912992  0.9016470125802115
  -0.0095891178434437  0.6447819228548629  0.8402283618738327
  0.0042631789905421  0.6957198007567331  0.8895726036539238
  0.7747147799726827  0.0669034517346213  0.5837580964428125
  0.6459589547549249  0.0957740262682948  0.6036465768283803
  0.1192086147662541  0.4273437795666866  0.6646281721515988
  0.2262583963894342  0.4676491288248355  0.6348619800619744
  0.6058902330528304  0.6079790722070217  0.8363661360849628
  0.5009717628648295  0.5448723261557391  0.8088524187435089
  0.4247363073795015  0.3377831463127798  0.7636058210877159
  0.4954373818938475  0.2469908850200762  0.7531416509056984
  0.2289662303325948  0.7279530309780704  0.8636669977672589
  0.1620229283959658  0.7651280823719955  0.9124206628109771
  0.0606571488062828  0.1929822451231564  0.8748230169085185
  0.1825179357608671  0.2038041267218366  0.8997501056573846
  0.9026373477240992  0.5771747665332413  0.6775685606960147
  0.0254328608997617  0.5509766492766286  0.6520660755148064
  0.0421712112881280  0.2926822751452329  0.6376958533546950
  -0.0056488140899787  0.2827151265831325  0.6876671021340840
  0.8429209257694742  0.5798755172975468  0.5887436068415981
  0.7383128796587661  0.5379754800296935  0.5554669972423989
  0.2051264688966216  0.4861563015582073  0.7278256087238077
  0.1657913081365724  0.4647503699691685  0.7888768125987389
  0.8701514497180577  0.6030244395858877  0.7603502509263711
  0.8058847650293477  0.5064356093586520  0.7551825163860141
  0.6764136377870024  0.4189614666981296  0.4454423113526425
  0.6179624192996407  0.3227305760448580  0.4311043528696569
  -0.0555578791377687  0.6096446171930051  0.5101440871381188
  0.0695695305205561  0.6131625769365716  0.4864389298432620
  0.4620823610620950  0.5676882203996262  0.5620468682899311
  0.5627562849392230  0.6412696934421291  0.5878034747479585
  0.2672562623061561  0.0588364603984783  0.7569019725286039
  0.3813430769543463  0.9936970231745027  0.7530511121731207
  0.0631441768617648  0.9996197036536176  0.9053580818297929
  0.0592270368326019  0.9615979637875036  0.8468193137120390
  0.2527018980825933  0.7632688910821573  0.6921919362790571
  0.3456348301634590  0.6893372778940335  0.7078255924605784
  -0.1769311167859391  0.9802163721111073  0.7818304370331650
  -0.2207574802192428  -0.0778445022049536  0.8252663425746108
  -0.0823421075790654  0.2826856282725346  0.5421538594005463
  0.0287692198545669  0.2279526147316230  0.5320481887436452
  0.2282181682871257  0.8944958658947637  0.3495895113768572
  0.2593572004499578  1.0074334584584266  0.3395437580482464
  0.5221459337769656  0.3699723722205404  0.6674309540515273
  0.5523448759219317  0.3860485129122179  0.6079257353571230
  0.4230473015521637  0.6626045401342694  0.5233180636638903
  0.2940274432998954  0.6989458841202194  0.5389779170546697
  -0.0426822009868560  0.9602936586188907  0.5192009253277341
  0.9386255901206537  1.0119645056714059  0.4666423703908624
  0.4990830153291793  0.0670297557146779  0.6634275423835809
  0.4553916313765272  1.0028106725093857  0.6185030514353079
  0.3985023323293339  0.0555581192413499  0.8809259146399890
  0.2939941820401193  1.0105428613565117  0.9080351604228900
  -0.0348988805435385  0.0911693873229180  0.8683698225037855
  -0.1062925032423794  0.1512909009638040  0.9058637917223343
  0.8781525298266605  0.9136631343500765  0.5991961401022685
  -0.0368511250728375  1.0091360439368526  0.6005057535916950
  0.0143049435687719  1.0940150670730595  0.6688238473021960
  0.1180938096376969  1.0229556162978544  0.6564424293829672
  0.5358809958881979  0.0305084789979364  0.4895918748313449
  0.6271304780635713  0.0969379753738087  0.5186208927390550
  0.7268297988272520  0.5787467872963103  0.4583354795952012
  0.8066041520112694  0.5435796437734587  0.4138806086730151
  0.9334740470289890  0.1750382168532893  0.7405296062461683
  0.0849273092593867  0.1769102424600329  0.7339912734014200
  0.2194939300384222  0.6998191786000539  0.3721015359816420
  0.1512882872104887  0.7545695146351992  0.3320003807337393
  0.3367297204497415  0.9591527559780291  0.4967258433382785
  0.4184649280831221  0.9175990684790167  0.5417104536681019
  0.1981429772588727  0.2257989381127741  0.5823042175524414
  0.0937585262505386  0.1461850306860992  0.5983614154959259
  0.4131744094123245  0.4213655187925419  0.9117792064976303
  0.5431346766624938  0.3957464105924189  0.8881343344051056
  0.3142651352856727  0.3757596568994964  0.3461616576330944
  0.4156950259790055  0.6313697774121201  0.4025201288808604
  0.5794380656753161  0.5288789537272895  0.4057275754212478
  0.1856341338881222  0.4891033928262649  0.3625760097866566
  0.4398497783705749  0.6549462891869869  0.3367122976990490
  0.6399154028444656  0.6045271483914852  0.3634585632728728
  0.5301346907520912  0.3274148539366489  0.3499711557086782
  0.6893404069670753  0.4477000092098304  0.3407541107491701
  0.3826649770910446  0.4296796684554563  0.3397596851684879
  0.5075406899311847  0.3967987538927566  0.3362782082516036
  0.3535211307098598  0.5262778748902965  0.3502766852715505
  0.6005581566229180  0.4734341651494189  0.3336117646094421
  0.4437291434760554  0.5987495265757444  0.3648287222010801
  0.5694847186289811  0.5537105420434287  0.3685000994398984
  0.4830121987185230  0.7988506898183286  0.4553030495117898
  0.2161507612716347  0.9906631928235000  0.4672124764857101
  0.7364090984522402  0.6164883606654270  0.8812424514650019
  0.6034326827279046  0.6441341675224006  0.7111008696832679
  0.2151514312316862  0.1663804594605691  0.7673327686007538
  0.1204579098588727  0.4990427511853614  0.9150643216574795
  0.1329939641313799  0.9021880703071461  0.8101587934359411
  0.4657501321821972  0.0931922287527473  0.3849011922862749
  0.4930499660089217  0.1605183793356403  0.8766220285658198
  0.5926095747065737  0.1670696590225823  0.7789596066082397
  0.1048985543349591  0.4114857113401091  0.8305999009341510
  0.3293834945408151  0.4663498235798474  0.5840901095033987
  0.6394294132442828  0.3966453510111080  0.5620351979499160
  0.7364013406292870  0.8442899711336908  0.3675315826080848
  0.1824528865124443  0.9142339988511937  0.6723893955269463
  0.7672226775702419  1.0614770340570496  0.4179726523360720
  0.6660923332592648  0.2256061940721585  0.3844163447147367
  0.8649874487539901  0.4043772401419257  0.8069676817987068
  0.0173170415587304  0.6437813717062029  0.7718155431146925
  0.1001467948356118  0.3888104605154789  0.3684645873040328
  0.4732145348780988  0.8294339414146870  0.8823172976019661
  0.4332931392888036  0.4578468484046910  0.7927870546620572
  0.6848200744120652  0.8843813568374982  0.8788839313863932
  0.0120977221835197  0.8309703687801008  0.7369067395496838
  0.2179695858372986  0.5295458337915470  0.4667725422494278
  0.8799845151074378  0.5996599283774547  0.3699517878121458
  0.8258922050673821  0.2123877148329740  0.7885205617674709
  0.7081313395857574  0.4192598271701373  0.8838987635447413
  0.5920271018000248  0.7312795593192897  0.6242406808443786
  0.4167391713173020  0.8700116250654695  0.6054140680763062
  0.2000164088152334  0.7058767768702766  0.5865310170405548
  0.3593538811113837  0.2049907132140264  0.5880669686083839
  0.8068207371755226  0.2862856207879517  0.5994405844001162
  0.9885167009768432  0.9477058744931139  0.3686922973204535
  0.6874912222903734  0.8918232766026953  0.7076431060412389
  0.8277791905090958  0.8079573344159565  0.6212491930478835
  0.3304350444291080  0.3574088940601350  0.4761770558273637
  0.5244804095450586  1.0396076130215790  0.7142595866332409
  0.3934262052651513  0.7562368855733089  0.7820123967884764
  0.1737511726854489  0.2277280196653052  0.3703951123321887
  0.6908932516495994  0.6918157740094000  0.4708038182087733
  0.9406182051675753  0.1604005496814353  0.3719283905707717
  0.3683257805158867  0.6328202372953620  0.8899637783741302
  0.8843903756553141  0.8162349825777707  0.9130898260363740
  -0.0201657171709936  0.6338827829982100  0.8771753389082970
  0.7156456759922889  0.1141681471768004  0.5837541947284133
  0.1731546112987943  0.4813535913334945  0.6637386735496389
  0.5299326950905930  0.6161248281372519  0.8126855705486361
  0.4178790485361135  0.2770845427819312  0.7475117979849782
  0.1641199100215891  0.7722592510929405  0.8752274887581551
  0.1493807905019522  0.2090879419864728  0.8673168398782805
  -0.0561692086278860  0.5780804529583594  0.6436126600781594
  -0.0061197739927955  0.3284712297672867  0.6609411165343827
  0.7986347538950099  0.5917694343508227  0.5592595923609133
  0.2120387088353068  0.5083649932285332  0.7632039428513935
  0.8117069689158161  0.5678176558952439  0.7394935426433236
  0.5999512082382561  0.3813133573603528  0.4473544186530922
  0.0100088008271193  0.6525148007144841  0.5027912747534763
  0.5427811353000594  0.5922228870776364  0.5626405980281914
  0.2932576273872802  0.9927421134975303  0.7567777205473200
  0.0110985508857400  0.9918869238428668  0.8767694050077915
  0.2955066591153240  0.7070388400679176  0.6791866473526704
  -0.1881853920182834  0.9139830165005659  0.7919977647445834
  -0.0399744907721244  0.2569277337137404  0.5116432541864819
  0.2391852548878815  0.9563507017118696  0.3659255788282017
  0.4909183714363881  0.3718009474038168  0.6335848943411182
  0.3381426509938892  0.6782122402444976  0.5075693837369434
  -0.0204611247779329  0.9604998690087519  0.4818044507723921
  0.4906361590627396  0.0659929421804210  0.6243881832846184
  0.3387571922062386  1.0048599191395005  0.8770475783512434
  -0.0721432418916369  0.1572919082574008  0.8708689346167768
  0.9061455549517997  0.9723137036137166  0.5806372243450338
  0.0567730883276602  1.0647841938760312  0.6401767407472493
  0.5880605452382173  0.0871069948230183  0.4856456852490511
  0.7733578163777539  0.5202161574022540  0.4469380111516827
  0.0015490892652106  0.1763355074214968  0.7170477576414461
  0.1871335892039250  0.7627990667742344  0.3664163705377428
  0.4190736109724075  0.9504979108781338  0.5098684797326219
  0.1067800435025260  0.2130562325408701  0.5849572512104612
  0.4547992392649053  0.3881342353728848  0.8830722866768792
  0.2426937088245911  0.5460511820882357  0.3649850199533538
  0.9389343539015479  0.7862654663522751  0.4329026588426144
  -0.1029974402185200  0.3291640144041195  0.4141445794706397
  0.4790159629484868  0.8994337867740146  0.3736648117907155
  0.3476453853640484  0.1707950822963150  0.4608258433017131
