1-pos-1
1.000
11.0985002518  0.0000000000000000  0.0000000000000000
0.0000000000000000  14.4173002243  0.0000000000000000
0.0000000000000000  0.0000000000000000  26.7964000702
Pt  H  C  O  K  
96  168  6  81  4  
Direct
  0.0000000000000000  0.0000000000000000  0.0018699899937576
  0.1249999521128992  0.1666699702868031  0.0018699899937576
  0.2499999943280624  0.0000000000000000  0.0018699899937576
  0.3749999464409617  0.1666699702868031  0.0018699899937576
  0.4999999886561249  0.0000000000000000  0.0018699899937576
  0.6249999407690242  0.1666699702868031  0.0018699899937576
  0.7499999829841874  0.0000000000000000  0.0018699899937576
  0.8749999350970866  0.1666699702868031  0.0018699899937576
  0.0000000000000000  0.3333300219343480  0.0018699899937576
  0.1249999521128992  0.4999999922211510  0.0018699899937576
  0.2499999943280624  0.3333300219343480  0.0018699899937576
  0.3749999464409617  0.4999999922211510  0.0018699899937576
  0.4999999886561249  0.3333300219343480  0.0018699899937576
  0.6249999407690242  0.4999999922211510  0.0018699899937576
  0.7499999829841874  0.3333300219343480  0.0018699899937576
  0.8749999350970866  0.4999999922211510  0.0018699899937576
  0.0000000000000000  0.6666700318690679  0.0018699899937576
  0.1249999521128992  0.8333299447943854  0.0018699899937576
  0.2499999943280624  0.6666700318690679  0.0018699899937576
  0.3749999464409617  0.8333299447943854  0.0018699899937576
  0.4999999886561249  0.6666700318690679  0.0018699899937576
  0.6249999407690242  0.8333299447943854  0.0018699899937576
  0.7499999829841874  0.6666700318690679  0.0018699899937576
  0.8749999350970866  0.8333299447943854  0.0018699899937576
  0.0000000000000000  0.2222199683821562  0.0864100026098289
  0.1249999521128992  0.0555599860957249  0.0864100026098289
  0.2499999943280624  0.2222199683821562  0.0864100026098289
  0.3749999464409617  0.0555599860957249  0.0864100026098289
  0.4999999886561249  0.2222199683821562  0.0864100026098289
  0.6249999407690242  0.0555599860957249  0.0864100026098289
  0.7499999829841874  0.2222199683821562  0.0864100026098289
  0.8749999350970866  0.0555599860957249  0.0864100026098289
  0.0000000000000000  0.5555599783168760  0.0864100026098289
  0.1249999521128992  0.3888900080300730  0.0864100026098289
  0.2499999943280624  0.5555599783168760  0.0864100026098289
  0.3749999464409617  0.3888900080300730  0.0864100026098289
  0.4999999886561249  0.5555599783168760  0.0864100026098289
  0.6249999407690242  0.3888900080300730  0.0864100026098289
  0.7499999829841874  0.5555599783168760  0.0864100026098289
  0.8749999350970866  0.3888900080300730  0.0864100026098289
  0.0000000000000000  0.8888900002512240  0.0864100026098289
  0.1249999521128992  0.7222199606033073  0.0864100026098289
  0.2499999943280624  0.8888900002512240  0.0864100026098289
  0.3749999464409617  0.7222199606033073  0.0864100026098289
  0.4999999886561249  0.8888900002512240  0.0864100026098289
  0.6249999407690242  0.7222199606033073  0.0864100026098289
  0.7499999829841874  0.8888900002512240  0.0864100026098289
  0.8749999350970866  0.7222199606033073  0.0864100026098289
  0.8708168160858066  0.2856964080873878  0.1706318386619712
  0.0000948880187509  0.4459637455744371  0.1704929540024553
  0.1249290261425302  0.6181486522198509  0.1696532055832256
  0.1219633401261099  0.9491312707240507  0.1711236435076025
  -0.0073556871241914  0.1191249575773739  0.1679816854766941
  0.7512342628498637  0.7842698323186920  0.1767391801396049
  0.1271722593123418  0.2837497558249416  0.1688531843324665
  -0.0080600354976333  0.7842378220606810  0.1681448336043734
  0.2471569243110228  0.7813597861625270  0.1707465440773235
  0.8653173085744110  0.9509292223375095  0.1715754194576661
  0.3772050215272131  0.9482531857079211  0.1713589594524116
  0.8803432665882385  0.6210168585661614  0.1730755377942596
  0.2473924194626831  0.1159846430042133  0.1697881417198158
  0.4943798893107306  0.1148833861493939  0.1697689874864615
  0.6220621662895658  0.9533176767266301  0.1715143520793723
  0.2557710912282596  0.4516881517750444  0.1712043399031756
  0.7405368073913440  0.1191443877269609  0.1689944893394854
  0.7536951091606587  0.4558176543569253  0.1695944941333338
  0.6106014089427008  0.2829631949762684  0.1743357685607630
  0.3721209665810641  0.2780250516697981  0.1693361832489663
  0.3740940464750298  0.6159404837066961  0.1748319523714677
  0.4980070578187883  0.7846897903486839  0.1724824555384951
  0.5068657443862868  0.4501944098701833  0.1753933678175943
  0.6290323699787943  0.6186773926345890  0.1744949393780678
  -0.0048299661921714  0.0192064624993578  0.2545566165167756
  0.1196132586819283  0.5115002921192238  0.2544493753839193
  0.8743596017152093  0.8488909926056717  0.2623424787092131
  0.2410260940496129  0.3435417628920521  0.2558581622098027
  0.8673183285136951  0.1867876613862185  0.2587763408380939
  0.6161782328104087  0.8521360990799854  0.2635959871958756
  0.7526643848789573  0.3464215497768408  0.2565700076349355
  0.2355946223433143  0.6852599087135735  0.2578064659619198
  0.1240068134139825  0.8510677433087683  0.2596830397169116
  0.7446693845737935  0.6842760354447008  0.2645442153583689
  -0.0008132217862982  0.6861922642857592  0.2571971545858682
  -0.0022868662994249  0.3474711106006138  0.2615399293875258
  0.2498961919156767  0.0159965830226163  0.2566844604006789
  0.8684413322905322  0.5140824493276346  0.2570237656572126
  0.4952274724243566  0.0212785882604380  0.2629236324522235
  0.3651344582924849  0.8541620684532781  0.2614011553137600
  0.6205271923639458  0.1785345547054372  0.2603295154022506
  0.3643945226603108  0.1853162790629007  0.2573615241126875
  0.1119608663250217  0.1849732561166445  0.2575619834201291
  0.7453271999483363  0.0239502013087034  0.2607327693233628
  0.3625678548907882  0.5192569905759509  0.2618960875160430
  0.6215607933586513  0.5151650064608830  0.2619534426232952
  0.5029085420433057  0.3478950471702150  0.2609621209819400
  0.4888510410242202  0.6911184135297275  0.2631503823657970
  0.5406023965829901  0.8182977102755594  0.4828386287003004
  0.5002822365210553  0.7117513957852137  0.4711267524602895
  0.1292221507376549  0.9286468236496791  0.4841924613832339
  0.2000461695750213  0.9388925921570884  0.4399838457148398
  0.8354362505236880  0.6051228848932142  0.8738456150287366
  0.7662273505666489  0.6143576879165704  0.9245123999268271
  0.7867293285130021  0.5664704261921916  0.7547251148892499
  0.6803809427922762  0.5973574578050483  0.7889689601444365
  0.3660554473782258  0.1876923701456307  0.7519787982979462
  0.2757647423401755  0.1663939218978480  0.7952990528007495
  0.2183528855267598  0.5415608860208148  0.9095564276152445
  0.0804724756802298  0.5553841729538352  0.8999551038319756
  0.2467488851978763  0.7973844853576371  0.8268703557699429
  0.2708985062384787  0.8765653737999756  0.7839439802125334
  0.3168236899602464  0.1055015823445441  0.3500139548756184
  0.4199852692388800  0.1236120132600296  0.3860127884380701
  0.5032900435438633  0.1029374861181443  0.9156431801929307
  0.5368456843197059  0.2007672554062067  0.8944922992531325
  0.6306377645001946  0.1205869653092010  0.8285535072523004
  0.7450747301338184  0.1375540169828355  0.7925973548521319
  0.2154934228173858  0.3111744284230456  0.8642027403357528
  0.1298836268140111  0.3997993574819837  0.8758950554258097
  0.3008000404341622  0.3619140744815377  0.5711984887597538
  0.3796883371441614  0.3528266977978520  0.6176603964390829
  0.6333551408227395  0.2729971633153736  0.5372506453361274
  0.7375270474560246  0.2725667693093210  0.5763283126368375
  0.7337283305263959  0.7748012013908353  0.3493073810914385
  0.6726570436748169  0.7584633160353658  0.4048580538534641
  0.2138590337658508  0.8041902055877409  0.6815738250456598
  0.2962903865562085  0.8957116543868738  0.6956819683376545
  0.8063226239012447  0.9013785527956546  0.4294971669309795
  0.7328339316999969  0.9682257571547351  0.4623903778358360
  0.6192766542745540  0.1275294075655743  0.3882721874969508
  0.5578223591512663  0.1874558476520329  0.3456634138329935
  0.8968933657126863  0.3643688245560592  0.8355225758813242
  1.0213874075068388  0.3468288519005839  0.8110029348631754
  0.1205084990004019  0.6152290749865869  0.7470005075069996
  0.1724172389408784  0.5159617624152772  0.7684803410739010
  0.1116151430279143  0.3285097877491108  0.3493334727454729
  0.0680131390254802  0.3640026850488092  0.3983814107803146
  0.4544457289877520  0.8070870538984674  0.9047226275838721
  0.4051452603851352  0.8783970179836411  0.8671869936940586
  0.5191320852712115  0.3689075657407443  0.8216049022787887
  0.4216818985286748  0.4228832955579253  0.7939963305168402
  0.6126721468152591  0.8851883565891152  0.8751265227070099
  0.7014116454191600  0.9526781529353132  0.9023160560768391
  0.1770912147955518  0.7398968692502156  0.7484175173031111
  0.0594147161633891  0.7320436309574340  0.7183008676006957
  0.2995072380667728  0.5218198248323759  0.4641853713489195
  0.1965234590363917  0.4813276223452529  0.4319641993878324
  0.7818418522351868  0.5755229233081234  0.3674216919850053
  -0.0939598453701771  0.5675259783804126  0.3440632477402472
  0.9355554714985926  0.1623129151431414  0.8440361231004412
  0.8948511689666598  0.2405807765072331  0.8069816925799691
  0.8094272810097050  0.3897547074818460  0.9162371360287260
  0.7682678059873105  0.4638340533568714  0.8812853004707263
  0.6521191084107228  0.6548607420331640  0.6201940212850374
  0.5352668327719792  0.6495314238387285  0.6425011724222812
  0.3722638883240035  0.8342314602028038  0.6174312222558377
  0.4902638082580144  0.7761933724899827  0.6152681169749734
  0.2784228058019676  0.6771497813956361  0.5859690532036009
  0.1767855217088260  0.6316732488340875  0.5533384977555058
  0.4273638345893396  0.1742961675560174  0.6121671390494942
  0.4234599772647454  0.0695918651127843  0.6119103996448735
  0.8235728150943248  0.1238621633743986  0.5816128632790515
  0.9012180518334273  0.2052872588594305  0.6015964026387102
  0.9338658545346288  0.8727460068766739  0.3456538686291852
  0.0596394829465944  0.8940211976494242  0.3723133729256020
  0.9270493309067872  0.8096376560381121  0.7588359733109564
  0.8341385526119667  0.7207859337343133  0.7697094464019941
  0.8630904283348046  0.7333121289158225  0.6838851722989379
  0.8855342031375850  0.6525862018148276  0.6427448803003131
  0.2901261772353226  0.3588325347474119  0.4857598339664903
  0.3847989904228151  0.2793440665133642  0.5063454304815032
  0.6030397010816420  0.9008513357451843  0.7638291819079873
  0.6039670758680082  0.0188945631333155  0.7685514589552210
  0.6433816757756898  0.7405383031772426  0.7561367333902763
  0.5567653545439909  0.7703839325187715  0.7978275430726705
  0.0351546122221984  0.1110469223635615  0.3458047504823225
  -0.0020700995250483  0.0367933097353361  0.3849641614386827
  0.7489808492595055  0.5704187470438346  0.5162111734733761
  0.6776725933560428  0.6659527494070873  0.4997193849442350
  0.7620549609870306  0.0258679660198383  0.3985969944103869
  0.7334231600688423  0.0470052019002680  0.3411490009236816
  0.3857275260056592  0.5937112094518791  0.8629357832366252
  0.3797282361025751  0.6108709475547881  0.9212768466893450
  0.9395291676827099  0.8703557423012080  0.9043710371099534
  0.8120549019168875  0.8202885307172135  0.9114067638160068
  0.0449490534650474  0.5914005494266510  0.8289681899585927
  0.0262220732528974  0.6756217969285533  0.8708184652740123
  0.8069021963708632  -0.0405316317208323  0.5812683523456494
  0.6967422549948461  0.0103968153931731  0.6022554987916908
  0.1039931585272355  0.3309732690907934  0.6574863849899409
  0.2014258850728443  0.3983069147454626  0.6422465434018858
  0.5988779758167793  0.5836703448275851  0.8628779909325865
  0.5464453614186654  0.5228135212094447  0.8244688791637043
  0.4972540950481072  0.3114318486433546  0.7476400813958466
  0.5519689289736652  0.2155422935885265  0.7621136963845748
  0.2388474207828283  0.7013855535349351  0.8927711134565639
  0.1779847028412355  0.7941080947113228  0.9075504881622142
  0.1654390121676313  0.1606483163121099  0.8925580844382985
  0.2962226704699853  0.1737371876447565  0.9043504200644340
  0.9342225239773634  0.5020945731433893  0.6685702624743014
  0.0326081572455076  0.4897208481515689  0.6336897252770888
  0.0787958521655363  0.1891821725542535  0.6311551190828959
  0.0135432352921398  0.1930422336290864  0.6852754697942134
  0.8487411162127302  0.4866887205188017  0.5775278356143939
  0.7563767487628360  0.4252902755999661  0.5536389062088395
  0.2321861449867575  0.3938043542043020  0.7326721872552437
  0.2223364153278092  0.3875239363874222  0.7895841790453639
  0.9647076074772828  0.5090877840657827  0.7506720227456981
  0.8988186969660270  0.4221778485989408  0.7563291683399894
  0.5544732839918571  0.2266577221366465  0.4571447450630845
  0.5716000170717769  0.1400115185433761  0.4907910647380420
  0.0020317886190382  0.5249754866894633  0.5365262905478293
  0.1197037982032332  0.5260885343787215  0.5046869910536853
  0.4366475666127984  0.4918018822171168  0.5814702181106712
  0.5292988447558274  0.5654026572437407  0.5740001225017237
  0.3195848616235105  0.0258642882785709  0.7517565193879286
  0.4317271783566334  0.9612821857965366  0.7502498616878558
  0.1070458373515212  0.9384264822893982  0.8844518950012493
  0.0260860299167939  0.9465226426719962  0.8374815003138033
  0.4361155179606354  0.6719339684119227  0.7369363673391600
  0.4295722245378847  0.5671524180039059  0.7275979194825657
  0.0936557085117351  0.8703288190566365  0.7822319337630174
  0.0417937983760257  -0.0472720477202305  0.7534643904109060
  -0.0887097442954351  0.1613085962502328  0.5155762486455847
  -0.0712797999145602  0.0790216088501629  0.4767804606226960
  0.1927460251445286  0.8133251960055737  0.3736772642954970
  0.2232257033645779  0.9051201973033467  0.3400061370718294
  0.5025016217479922  0.2697091542316687  0.6680433169718081
  0.5546049624138820  0.3060189032662121  0.6166201788043641
  0.4445889240845617  0.5566604227727152  0.5070846215574726
  0.3418948512781796  0.6358438535634429  0.5053965558366482
  -0.0101260055818599  0.8580649599117748  0.5477203567475493
  0.9271098199174435  0.8934501119279713  0.4949826920389386
  0.5583356679741477  -0.0118491773176829  0.6668649053934889
  0.5078651393449167  0.9279422428861545  0.6188697490802998
  0.2554021919799728  0.0348175501439537  0.8741884383847073
  0.2886664261218898  0.9769456145929611  0.9218825415422910
  -0.0148248733222595  0.0631682023909728  0.8868974954038525
  -0.0545176059803097  0.1533324501402850  0.9214102626627830
  0.9292226635691069  0.8153318372456055  0.6235938586012938
  -0.0140982298644020  0.9156600280716538  0.6275922534237069
  0.0461255780047375  1.0286321038320503  0.6934534650333465
  0.1540735472905601  0.9786307659959299  0.6679318304477909
  0.5494192639506446  -0.0131393650997649  0.5032798750231282
  0.6739771640034734  0.0205281317996809  0.5252203686401730
  0.9134679560380923  0.4046074904001817  0.4760574146184103
  0.8792792188942193  0.4549245174589161  0.4274095818839787
  0.9991994378430942  0.1305237570504547  0.7653498274272829
  0.1409069081244889  0.1317967662001890  0.7456984389788168
  0.1716077448744578  0.6440131399324321  0.3785849162993289
  0.0546726373594116  0.6974759385499467  0.3603043070265647
  0.3517248086530335  0.9383533989115391  0.4891835891261256
  0.4069990427370943  0.8830435757827975  0.5315075544285116
  0.2267197654198282  0.1237128614131082  0.5723803166962316
  0.1074334570661130  0.0676258555576648  0.5730597108593396
  0.5199746718538881  0.3618115390291990  0.9075097972448840
  0.6474015818970384  0.3361378744844232  0.8834648731277621
  0.3126859134536817  0.3802867461245645  0.3367630347046333
  0.4140591073874773  0.6101307999866592  0.4084833768276510
  0.5944141654121289  0.5333570034311573  0.4095951591126577
  0.1803362403019629  0.5059625577821505  0.3319500060604077
  0.4313124387255510  0.6596053095274794  0.3465301092786190
  0.6339766391192216  0.6181218929241439  0.3615128955390200
  0.5338117465230618  0.3372306017672640  0.3558865173350437
  0.6850349612747846  0.4478403908047554  0.3456576878399647
  0.3831111971917467  0.4323402444373137  0.3391438938324587
  0.5088127066883777  0.3998607798763449  0.3348467733723096
  0.3546153816739060  0.5269694246426695  0.3472754706796906
  0.5984541969283446  0.4800447997770700  0.3355885321887151
  0.4393293173380977  0.5957240187468599  0.3700044203857865
  0.5727924539776420  0.5636892476791425  0.3701082177314267
  0.5595306308249031  0.7616726605853261  0.4637230026401548
  0.1948197545654265  0.9682491302200634  0.4722202293759661
  0.7603370715634656  0.5892138351937836  0.8911019401242198
  0.7442211751502552  0.6228254514853857  0.7669988007663971
  0.2898730811289776  0.1547866931243260  0.7594372483351310
  0.1389904113530850  0.5107518971262546  0.9175293173743280
  0.2245880735098187  0.8207239594800424  0.7925858660887459
  0.3369467502956983  0.0924640022931009  0.3840962236806603
  0.5124803720914936  0.1367281116805424  0.8839803059979916
  0.6597946936940754  0.1272908386555503  0.7939162553688958
  0.1459705790822731  0.3487834751422157  0.8510167698369416
  0.3186543884185092  0.3957423639263238  0.6022183275299769
  0.6647535395066954  0.3077695257965982  0.5665377714144082
  0.7252970360382218  0.7980919914608121  0.3841672533784933
  0.2719664178059067  0.8519004358665445  0.6645516833398692
  0.8136666140125914  0.9579351340774729  0.4500176260060591
  0.5636717641994369  0.1845644995874527  0.3830676483933906
  0.9354573481418064  0.3492237964368573  0.8034131107574300
  0.1200005730129167  0.5715649053080669  0.7769854780065837
  0.1151376321131995  0.3100351857392930  0.3847882489023848
  0.4677131754768503  0.8271510171023719  0.8690027907889122
  0.5109847538256556  0.4223155513358688  0.7964610543837393
  0.6966725587672072  0.8884006241759372  0.8899373916207548
  0.1443093392677306  0.7194190755158248  0.7161405753096286
  0.2378765557600291  0.4724482087582187  0.4634862751326023
  0.8669904745859168  0.5777634857641619  0.3772096906718768
  0.9025818565058241  0.1701162057211083  0.8078236097382775
  0.7894823175211381  0.3968165581276692  0.8802464064391747
  0.5691019578141304  0.6599108131676530  0.6088187608507457
  0.4513255262924027  0.8304928526853470  0.5984988943397388
  0.2442714020987035  0.6793112640043893  0.5535064270888570
  0.3824228792815172  0.1213926131364151  0.5972133378579072
  0.8569882575312300  0.1842450587401131  0.5720716424422897
  0.9718962353359938  0.8860906234489033  0.3790432807985834
  0.8823598677858976  0.7524132641433350  0.7443874325298921
  0.8651084919102294  0.7184833287053879  0.6468455787042826
  0.2997424915821814  0.3039884080802508  0.5084226837750119
  0.5853524287073260  0.9617843035777698  0.7467460656087545
  0.5690248380609583  0.7721761914089933  0.7600887524571126
  0.0245804019922201  0.0990629662058899  0.3827846396877386
  0.7412366997843490  0.6250360656783455  0.4947320747365246
  0.6964646640834524  0.0425578033788771  0.3757381635526855
  0.3299572542520848  0.6044059654811748  0.8899573470438191
  0.8980183844284336  0.8141232734417783  0.9195257473335706
  0.0029145164361062  0.6144758599372326  0.8603036644999583
  0.7565767608410120  0.0172798909521284  0.5768916385336167
  0.1434684001328699  0.3927409959984320  0.6696082719280760
  0.5371810351342807  0.5878260862055038  0.8388272603190848
  0.4873041881873050  0.2441978570971278  0.7414321631954838
  0.1813646061839340  0.7489465149931884  0.8805143123288164
  0.2429866670104930  0.1632605150257445  0.8756645899422439
  -0.0432921013289227  0.5177130853125728  0.6331751620124757
  0.0130449914146300  0.2212598991955085  0.6503747029318750
  0.8218725227150064  0.4670930210948677  0.5441675002574764
  0.2662908133845090  0.4185510234315028  0.7640793730561429
  0.9054127695469716  0.4769951758519266  0.7322990088330003
  0.5470098036458018  0.2071676534116856  0.4908852245055252
  0.0637723447080347  0.5681145706111340  0.5247909505851411
  0.5042785094132244  0.5079664464125132  0.5563290973095527
  0.3394012756263241  0.9613143466236529  0.7460798973378957
  0.0169283246238183  0.9551305050227316  0.8747407808434415
  0.4426443531866605  0.6266057056489316  0.7094880835296508
  0.0179399263578616  0.9061365654702037  0.7801263151891721
  -0.0890228719181908  0.1472654518299792  0.4783337389843774
  0.2224760217489334  0.8801619942000003  0.3747172112446019
  0.4828601487512559  0.2799379928981091  0.6325993326749686
  0.4064074992536461  0.6019300844323890  0.4829839020314121
  0.0012055010403617  0.8673876599394441  0.5100894064796661
  0.5552483918266842  -0.0109063166510868  0.6306338378151357
  0.2787610680909999  0.9696618000807958  0.8825011272987573
  -0.0094924982393827  0.1339214031726765  0.8930523677922305
  0.9445874587154008  0.8713582297693986  0.6040624384803488
  0.0690044221223306  0.9886851033992448  0.6645579927918687
  0.6221761015845436  0.0205746226814391  0.4927854051479477
  0.9257946087746016  0.4016115133845129  0.4393391854002175
  0.0608533531447606  0.1142723943018944  0.7374478547428446
  0.1252467229862481  0.7052901294974387  0.3820911877295904
  0.4309052335899501  0.9154991660680944  0.5023445288596757
  0.1427368789168675  0.1239104874287750  0.5598043440425481
  0.5644025289528714  0.3248958229020598  0.8828146892353603
  0.2286454233839782  0.5435648645154364  0.3574877867364406
  0.9495779944673839  0.7130989009906097  0.4558296018420669
  -0.1389580593332757  0.2436551216211188  0.3902877907928601
  0.5201742181033592  0.9099554701779797  0.3829083812497138
  0.1886257728165094  0.1596572127852571  0.4508773878710725
