1-pos-1
1.000
11.0985002518  0.0000000000000000  0.0000000000000000
0.0000000000000000  14.4173002243  0.0000000000000000
0.0000000000000000  0.0000000000000000  26.7964000702
Pt  H  C  O  K  
96  168  6  81  4  
Direct
  0.0000000000000000  0.0000000000000000  0.0018699899937576
  0.1249999521128992  0.1666699702868031  0.0018699899937576
  0.2499999943280624  0.0000000000000000  0.0018699899937576
  0.3749999464409617  0.1666699702868031  0.0018699899937576
  0.4999999886561249  0.0000000000000000  0.0018699899937576
  0.6249999407690242  0.1666699702868031  0.0018699899937576
  0.7499999829841874  0.0000000000000000  0.0018699899937576
  0.8749999350970866  0.1666699702868031  0.0018699899937576
  0.0000000000000000  0.3333300219343480  0.0018699899937576
  0.1249999521128992  0.4999999922211510  0.0018699899937576
  0.2499999943280624  0.3333300219343480  0.0018699899937576
  0.3749999464409617  0.4999999922211510  0.0018699899937576
  0.4999999886561249  0.3333300219343480  0.0018699899937576
  0.6249999407690242  0.4999999922211510  0.0018699899937576
  0.7499999829841874  0.3333300219343480  0.0018699899937576
  0.8749999350970866  0.4999999922211510  0.0018699899937576
  0.0000000000000000  0.6666700318690679  0.0018699899937576
  0.1249999521128992  0.8333299447943854  0.0018699899937576
  0.2499999943280624  0.6666700318690679  0.0018699899937576
  0.3749999464409617  0.8333299447943854  0.0018699899937576
  0.4999999886561249  0.6666700318690679  0.0018699899937576
  0.6249999407690242  0.8333299447943854  0.0018699899937576
  0.7499999829841874  0.6666700318690679  0.0018699899937576
  0.8749999350970866  0.8333299447943854  0.0018699899937576
  0.0000000000000000  0.2222199683821562  0.0864100026098289
  0.1249999521128992  0.0555599860957249  0.0864100026098289
  0.2499999943280624  0.2222199683821562  0.0864100026098289
  0.3749999464409617  0.0555599860957249  0.0864100026098289
  0.4999999886561249  0.2222199683821562  0.0864100026098289
  0.6249999407690242  0.0555599860957249  0.0864100026098289
  0.7499999829841874  0.2222199683821562  0.0864100026098289
  0.8749999350970866  0.0555599860957249  0.0864100026098289
  0.0000000000000000  0.5555599783168760  0.0864100026098289
  0.1249999521128992  0.3888900080300730  0.0864100026098289
  0.2499999943280624  0.5555599783168760  0.0864100026098289
  0.3749999464409617  0.3888900080300730  0.0864100026098289
  0.4999999886561249  0.5555599783168760  0.0864100026098289
  0.6249999407690242  0.3888900080300730  0.0864100026098289
  0.7499999829841874  0.5555599783168760  0.0864100026098289
  0.8749999350970866  0.3888900080300730  0.0864100026098289
  0.0000000000000000  0.8888900002512240  0.0864100026098289
  0.1249999521128992  0.7222199606033073  0.0864100026098289
  0.2499999943280624  0.8888900002512240  0.0864100026098289
  0.3749999464409617  0.7222199606033073  0.0864100026098289
  0.4999999886561249  0.8888900002512240  0.0864100026098289
  0.6249999407690242  0.7222199606033073  0.0864100026098289
  0.7499999829841874  0.8888900002512240  0.0864100026098289
  0.8749999350970866  0.7222199606033073  0.0864100026098289
  0.8907280773180762  0.2842897886035389  0.1695209005015462
  0.0058738076335519  0.4561433167366327  0.1728140098471607
  0.1197727844340418  0.6252875814159374  0.1692725317437069
  0.1276511030641485  0.9545651995443686  0.1678678183381230
  0.0002627803157032  0.1182961954225939  0.1677930343934606
  0.7487007521085867  0.7764189193988635  0.1711507933784096
  0.1452575499864080  0.2887619798180442  0.1741548314801366
  0.0053807355088643  0.7885567380734759  0.1701160084883737
  0.2470324259401933  0.7888890301895772  0.1688657904474340
  0.8609949761230313  0.9480353287616736  0.1680035426664086
  0.3771555214697698  0.9535340173418267  0.1699948748699960
  0.8779755444002124  0.6182557484775399  0.1711302931433571
  0.2594033461803160  0.1213888842621346  0.1700267121652209
  0.5082701244868750  0.1135811661839418  0.1690225526426914
  0.6220413871667323  0.9500407083646639  0.1741882160540963
  0.2595639122982211  0.4482612328976303  0.1702090073536493
  0.7505672397898066  0.1226314385976409  0.1717366244325390
  0.7608116807971905  0.4542196706955205  0.1721133104677362
  0.6400527885150883  0.2839862544166996  0.1741315303837817
  0.3863695072768534  0.2876598748918237  0.1730004884967893
  0.3698296403727437  0.6183387570770267  0.1721475665318939
  0.5083836047564093  0.7840889447211926  0.1690100804300388
  0.5064327404045804  0.4527065621064914  0.1711452075012168
  0.6352782031298777  0.6092962886556320  0.1708223581193097
  -0.0023434762003796  0.0177188577560056  0.2538996008857999
  0.1266646554855016  0.5218203185655915  0.2600846672926981
  0.8779427322731918  0.8532549854074554  0.2588150131148657
  0.2534698283440372  0.3529010666244228  0.2626412004509034
  0.8749128781724500  0.1829029192549836  0.2598643230007585
  0.6320717829566450  0.8549833088253171  0.2606526351189781
  0.7612163857120975  0.3542227437001269  0.2521066758445952
  0.2476537221913585  0.6891094143863802  0.2552435977848479
  0.1314029738174286  0.8525644144791189  0.2580531184033927
  0.7547549657298462  0.6870416669623685  0.2632552323117838
  0.0111288616387577  0.6857281567901878  0.2593972001309995
  0.0113446634719479  0.3495894053801403  0.2601448897291363
  0.2546755135173858  0.0193707070918376  0.2535705743457832
  0.8878946397196134  0.5186581864125023  0.2572872594616603
  0.4988685887448654  0.0132668831073945  0.2583847880894967
  0.3795437949029934  0.8530705804593279  0.2558500595915618
  0.6229850264569419  0.1806455224959742  0.2615870165185096
  0.3844123256210277  0.1806487775575510  0.2581766224931707
  0.1173235323023773  0.1822042489461679  0.2553310023426939
  0.7521651603374160  0.0178667042991752  0.2574163362962701
  0.3805805061557713  0.5178203636570573  0.2635687510709451
  0.6379213977628861  0.5180409319847280  0.2616021575262172
  0.5119757446307616  0.3523101088884079  0.2596653469261353
  0.5132339822109009  0.6882465716275789  0.2522809774592809
  0.5078930805705746  0.8349630262821606  0.4812343340604465
  0.4617104555968201  0.7377433498660753  0.4665611819105329
  0.1371829334826632  1.0110570363396689  0.4498725565232250
  0.2415077669224079  0.9654249825803151  0.4154886563169939
  0.8009401724668436  0.5781111207389508  0.8857353530295629
  0.6827732459771768  0.6397080537488631  0.8982648802130810
  0.6831624871270608  0.5890782784134160  0.7239373169858488
  0.5730259198461118  0.6606594495650424  0.7304411486364970
  0.3280999890151302  0.1786646929401143  0.7643174699640591
  0.2279334713976079  0.1546884224787850  0.8032908356984140
  0.1888865220920281  0.5390128988367729  0.9016877355652819
  0.0410748266393980  0.5453956161672271  0.9059480341502011
  0.2322786818590105  0.8414038862459065  0.8478259362295912
  0.2131663517704836  0.9009912568378032  0.7965934549073435
  0.4610283583559093  0.1428233663282805  0.3428673063818541
  0.5732505373659066  0.1674777717211084  0.3756945868596617
  0.5870855521621713  0.1657505605503214  0.9145809111856974
  0.5041155156339787  0.2383438207736179  0.8894470276888246
  0.5748019717858146  0.1485086795786661  0.8270696027578225
  0.6901392715252449  0.1617879110520674  0.7896787368178021
  0.0881386675592813  0.3023352609633011  0.8483415462989963
  0.0933968770448859  0.4086283197994540  0.8603167655918617
  0.3065704757044244  0.3904999797126268  0.5589826320236829
  0.3445086385865409  0.3803528970394488  0.6125621623202422
  0.6206000244747411  0.3105460769523083  0.5460165395526876
  0.7059922654440822  0.2484892818533189  0.5794442385179731
  0.7687727377504190  0.8028190903863884  0.3457541218756274
  0.7724924286242650  0.7332343203467738  0.3890265608846836
  0.1128617615877288  0.8471406061319638  0.7026880900446066
  0.2150541047843741  0.9162967315499186  0.6995585920903922
  0.8254444400912816  1.0348608407386066  0.4505205614960762
  0.7058021043185142  1.0779714908763081  0.4696591959229570
  0.7469365082868304  0.1624950699196351  0.3974466042453184
  0.7438312038116234  0.2260834171162069  0.3510945377533237
  0.7615940135991915  0.3889260379727057  0.8393583061410133
  0.9060093424937465  0.3893209290488036  0.8214172079770609
  0.0247651177514208  0.6583862328191803  0.7582185804911501
  0.0456017423811759  0.5538118015148477  0.7761743036867850
  0.0692389566667235  0.4174146339726508  0.3505767209471986
  0.0086406874284160  0.4978907452521003  0.3799881849511438
  0.4774476744856219  0.8436994531124561  0.8526038724585095
  0.4525947464284942  0.9533352331759003  0.8447782556349572
  0.3725856077742887  0.4094757954578582  0.8164724016428937
  0.3188064657408237  0.4576515827130427  0.7684580210944100
  0.6368941450673563  0.9396017010291343  0.8631326843086417
  0.7265894645082464  1.0039153167806589  0.9009362438706048
  0.0895270361001119  0.8095658652600957  0.7773143704166430
  -0.0267938025727189  0.8149893972448293  0.7375977483550267
  0.2543076231261288  0.5454020261329323  0.4734252209500361
  0.1733983612144247  0.4704681991894448  0.4447707368033427
  0.8689344741814027  0.6091945235971831  0.3353738477391275
  -0.0491772898875666  0.6455402957353534  0.3796001508766875
  0.9050584722085214  0.1680545598139293  0.8289247765337687
  0.8540300978199955  0.2568209521266160  0.8026510308345112
  0.6966716055843662  0.3835525366239980  0.9162404350950097
  0.6602066160165765  0.4798590224152665  0.8887258179871718
  0.6802931166556014  0.7012234444809764  0.6059870435267315
  0.6022747545656815  0.6847038658917358  0.6493948728415937
  0.3930319189741462  0.7959161004332308  0.5818188820123716
  0.5263750299642985  0.8051801521989618  0.5917973035913716
  0.2164433442626991  0.7463815233356192  0.5516946767241507
  0.1092183601206304  0.6838233062930252  0.5324206081161675
  0.4168561149466712  0.1960512473504543  0.6187560349100374
  0.4312347528598539  0.0829322729219959  0.6132936408340967
  0.7759096265734968  0.1050050273801178  0.5805459553277931
  0.8706060390666666  0.2033856067904953  0.5983592045459533
  0.9198281584436878  0.8826579857476653  0.3525692111720097
  0.0488621071763321  0.8921164135932725  0.3406701679585674
  0.7730869751891426  0.8552157756011945  0.7181978490798209
  0.7377802820405392  0.7480279114409314  0.7199395822856891
  0.8455556176590616  0.7475781725231643  0.6498412395837181
  0.8713362314634893  0.6527800672789934  0.6165745396328038
  0.3156031202442793  0.3987452331339047  0.4853412453698648
  0.4520309963579398  0.3636490349811353  0.4856838415684567
  0.5805087474819027  0.9394048708490138  0.7701104816668748
  0.5887952244574818  0.0398481985435587  0.7541414657438786
  0.4334472281621830  0.7804604092266049  0.7586702954889964
  0.4419604363215175  0.6767563769570962  0.7732508915756515
  0.1980706391607706  0.2575988949540183  0.3487091357316885
  0.1374116045681631  0.1779756149681334  0.3793766842511590
  0.7556773635825056  0.6700128902718337  0.5108362976011439
  0.6698490601551567  0.7352421293990685  0.4754747914429427
  0.9995151839457653  0.0414344938307619  0.3780635365407271
  1.0044675985290856  0.1096575853525836  0.3349939912631332
  0.3979839091848134  0.5796868465646300  0.8622577416469939
  0.3803430930152371  0.5868954791090804  0.9213605229777317
  0.9369983426196168  0.8551723193722022  0.8948346291622236
  0.7987584314071835  0.8610593475660760  0.9041074465238487
  -0.0457270525553839  0.6315842300039298  0.8437221354835241
  -0.0836268212229370  0.6973324556670342  0.8945815231822326
  0.7990941365579218  -0.0442576603436848  0.5755492345798855
  0.6825720000836482  -0.0037528780949435  0.6056820157626069
  0.0409158529708869  0.3591661676832020  0.6395902500373469
  0.1483506375046456  0.4284705924128683  0.6211659629948109
  0.5877371073305218  0.5790276925515936  0.8272004240991525
  0.4648342389921826  0.5308860017563809  0.8022867477377361
  0.4473938837181799  0.3065152686112258  0.7685493340018748
  0.5123057921251882  0.2145048038389000  0.7634223783458879
  0.3465432409190802  0.7315134424837892  0.8969446132515744
  0.3524582914674056  0.8312396380635035  0.9184888744018630
  0.1033201587407293  0.1704276283265995  0.8871146453077484
  0.2365153451318139  0.2058314623911553  0.9070874424483312
  0.8410120858344061  0.5090976788448177  0.6579498207562181
  -0.0377227770060283  0.5063473932862796  0.6363089963626124
  0.0585597699738388  0.2121687494961296  0.6192580802954160
  -0.0219820972352037  0.2076481211686326  0.6676056397812423
  0.7698007546122602  0.5005386183008739  0.5670961855096150
  0.6531474680666277  0.5280760975739238  0.5420429830555068
  0.1351688827196896  0.4296286407534209  0.7175132078723475
  0.1062727154336649  0.3939809739986035  0.7714389663143177
  0.8613393848911783  0.5448974093956227  0.7458258619718703
  0.7828843610280413  0.4492425632354805  0.7546945845382380
  0.6559175268225406  0.4084796986729834  0.4531673684221631
  0.6240052470041427  0.3085858511499514  0.4362987646912207
  -0.0786570036125753  0.5831493563426994  0.5181212295841191
  0.0537933509532670  0.5509463159830719  0.5060475172103516
  0.4950934255471888  0.4877174707264863  0.5876024071088023
  0.5400912051092520  0.5962114431460657  0.5880581323617470
  0.2892746834852128  0.0330589889219805  0.7582973008115840
  0.4080127386009273  0.9817137232215194  0.7394610417589614
  0.0358351980156505  0.9348216101641440  0.9155993282203926
  0.1008062270862722  0.9253188974323190  0.8624404702145317
  0.2404381912202247  0.7930079320627524  0.6433619313316711
  0.2785655060284908  0.6908284172311866  0.6439816806919021
  -0.0873580283734963  0.9809726897108215  0.7732443606498726
  -0.1943876182775328  -0.0335917191683170  0.8054416556014239
  -0.1214800598199145  0.1974289613600802  0.5258680831299749
  0.0262138476370098  0.1995303386241075  0.5288076381035401
  0.2739765939733021  0.8110319641878527  0.3788655244138630
  0.2956324027985548  0.8813608545643610  0.3362627765182769
  0.4643652103142623  0.3036148814063092  0.6758281521568891
  0.5418547488093863  0.3164209715013752  0.6192486785698356
  0.4007932283984560  0.5888932712929077  0.5089462516894797
  0.2767006289612814  0.6555319745419862  0.5056607663455768
  -0.0720377495572280  0.9712242604478230  0.5079219742108596
  0.9584470415878753  1.0780321839316225  0.4953261612652484
  0.5604929406737736  -0.0136273186271627  0.6721593989832370
  0.5101974056343013  0.9349572880698245  0.6242426028264307
  0.3290008094388968  0.0788998562562173  0.8888848710088026
  0.3322653913083367  0.9927693833950759  0.9275111746387095
  -0.0350311555146331  0.0652422396125603  0.8895240506879809
  -0.0769642874550968  0.1535633737978495  0.9200335731036126
  0.9081228908171964  0.8209339368303716  0.5822962739406339
  -0.0132376612575354  0.9050645330050721  0.5788848040842161
  -0.0044073070496229  1.0198209484753846  0.6288910267965790
  0.0965424511412002  0.9431601081512618  0.6334088817428720
  0.5495732376012487  0.0782736619507964  0.4991296438350338
  0.5538230450373796  0.1602913288373451  0.5345724577880989
  0.7923790134053218  0.4779331817954532  0.4792888139994150
  0.8319082749854031  0.5157031366017067  0.4228434993550024
  0.9641498314571402  0.1393184458845188  0.7501812039168425
  0.1015158007152607  0.1209117317860833  0.7338694248362603
  0.1580632636031599  0.6602831634146815  0.4049291767429196
  0.0946917243011780  0.7303377148623702  0.3643351018839723
  0.3632981288481805  0.9813769100439860  0.4792560391230249
  0.4473655884807266  0.9441442365857996  0.5256100253243785
  0.2402466857328363  0.1657648570758008  0.5795704426756637
  0.1395992016352589  0.0923383361717181  0.5773825278756753
  0.3802116131876123  0.3577938369768849  0.9134815241253899
  0.5095848749098102  0.3798846527846318  0.8913968508987752
  0.3303122147341879  0.4032623270618119  0.3444165170366900
  0.4467516124798796  0.6390554179950386  0.3974416392052513
  0.5685407527991564  0.5160479691724831  0.4100884140336685
  0.2016429088459085  0.5454610186132698  0.3427193699392866
  0.4759730927287449  0.6641009399639433  0.3337006949431345
  0.6727065690239659  0.5937739823209960  0.3838365973472060
  0.5358131432519935  0.3346859911793423  0.3530732467500955
  0.7027866971877559  0.4455524670682154  0.3437431665622707
  0.4049577961104318  0.4468810229976893  0.3383566369194132
  0.5211089810951712  0.4044378307855559  0.3351421532210678
  0.3775833913343697  0.5482834569662850  0.3452216058076997
  0.6163114021726169  0.4792734488079575  0.3366096255045455
  0.4796701966589219  0.6093347340296879  0.3637010544912073
  0.5899277253553361  0.5531477306450558  0.3743298429759984
  0.5346249201857408  0.7768778341399778  0.4621006131219319
  0.2243557679873152  1.0044604619935438  0.4456170583853683
  0.7114139494315418  0.5888168204954040  0.8744883229878236
  0.6482040279030703  0.6509629381984847  0.7123064227320122
  0.2536008354591440  0.1401657683797117  0.7687817228184204
  0.1160642546447737  0.4999973769534232  0.9133505116576404
  0.1777565412840386  0.8616331284245795  0.8207210570071123
  0.4979928367532012  0.1316023508549862  0.3769519767035113
  0.5382040686291134  0.1745677869326743  0.8831026866111190
  0.6106030301437273  0.1385659588840945  0.7907833659927083
  0.0619926637374643  0.3616695275313356  0.8359578065865475
  0.2874261444092532  0.4139445646169695  0.5926064249563011
  0.6456893873149896  0.3029457810095691  0.5792182135114747
  0.7442847202945539  0.7970947979380075  0.3813956579774158
  0.1661642532107799  0.8810091016826769  0.6768170902504606
  0.7393098852765483  1.0402363021352818  0.4421980550953746
  0.7144553971347597  0.2198207370932289  0.3851865331447472
  0.8194517943201367  0.3743398076779689  0.8111313910211289
  -0.0117462224302655  0.6035389782917888  0.7757351366057901
  0.0742468609906420  0.4541493132371740  0.3834336393912226
  0.5141049295443869  0.9055273469991063  0.8375707480931219
  0.3984427106610916  0.4371042527836360  0.7843286696660793
  0.7216221284313689  0.9670871793180654  0.8697840352898584
  0.0546968007683332  0.7821783662722835  0.7437670510922195
  0.1944681690348169  0.4916517199421888  0.4783791533608165
  0.8802016220448917  0.6079981138164583  0.3735614426406527
  0.8696586492607065  0.1918940374867810  0.7965653625853141
  0.6600299990723472  0.4120372302636450  0.8859120521715220
  0.5914850934147905  0.6906464230187350  0.6127951814901172
  0.4639464456618719  0.8380460039692786  0.5734681207342232
  0.1819089233135408  0.7185768573674135  0.5217419757942751
  0.4075211580381287  0.1445529237566520  0.5944851924238755
  0.7991224659531434  0.1788232986682620  0.5745374802685237
  1.0000005801684781  0.8999853100395563  0.3706209144318794
  0.7987892978749248  0.7929903588558372  0.7072685513259150
  0.8500322624914965  0.7227993232072657  0.6146270303903951
  0.3703430678242659  0.3479474884031947  0.4978262431241733
  0.5776921274439899  0.9772357805626585  0.7396637360643820
  0.4291850866000987  0.7158765762818894  0.7433175785373821
  0.1933236841213764  0.2332031459144593  0.3825444849250413
  0.7578279389988670  0.7141159342889304  0.4821404153227203
  1.0015308004788526  0.1128903041192668  0.3707576533479427
  0.3349094230003881  0.5817095392148703  0.8892225409449246
  0.8696895176656466  0.8174002665656620  0.9118570250476794
  -0.0722662226069618  0.6329433479244246  0.8782006992823778
  0.7566307446754406  0.0145922210210625  0.5844666263367633
  0.0777144535506150  0.4223431383524262  0.6468434800977589
  0.4984202114968501  0.5908833230746999  0.8206263534203112
  0.4466718821757912  0.2463165821375147  0.7462447422382715
  0.3493110396399045  0.7970426769938426  0.8856551631871075
  0.1899196288217540  0.1944471702319782  0.8760409247996719
  -0.1139139353440979  0.5388299533227748  0.6295462165890140
  -0.0197347742785767  0.2293159363517743  0.6326216549532757
  0.7448279507998667  0.5227481331142165  0.5345636177536398
  0.1519280628052903  0.4439271204405226  0.7536673890407871
  0.7978557919808904  0.5037179492565227  0.7314061499587738
  0.6019947366687143  0.3577997103580784  0.4610386466329465
  0.0074905883420165  0.5999716664095466  0.5253552819304108
  0.5263637150030740  0.5381163687514652  0.5652723493572973
  0.3187373116314767  0.9756792036480586  0.7435815061015874
  0.0223148721071420  0.9445738127618967  0.8781851825637548
  0.2745295335742184  0.7439061411042187  0.6217026470890296
  -0.1421593351718051  0.9334076158460094  0.7805439996233006
  -0.0441221401621881  0.2009881152655744  0.5056180153716774
  0.3045497373081386  0.8721361764948954  0.3733810031119349
  0.4607441648316997  0.3178784931575159  0.6392230373380955
  0.3563033687599956  0.6294618332636285  0.4875623183887808
  -0.0418454951897377  1.0131893600286896  0.4806828736418348
  0.5467031627192993  -0.0091051807798761  0.6358832335037915
  0.3309140971190548  1.0105950842407054  0.8904838037978250
  -0.0412062925552332  0.1347977222271071  0.8877330175538931
  0.9135494118545981  0.8799190311732544  0.5654923728001685
  0.0520663366932195  0.9856430117927957  0.6090984695832756
  0.5585503662348081  0.1456316872254037  0.4994699744793034
  0.8233156838752183  0.4588637768290079  0.4429096780764483
  0.0162275709072305  0.1138975302000225  0.7224759384500228
  0.0898286934433604  0.7037437694887582  0.3980754533428036
  0.4474316914210659  0.9724434288584505  0.4938881854364410
  0.1558473882198160  0.1547561559992644  0.5697672073227128
  0.4280912834713352  0.3521875918170755  0.8815341827378417
  0.2698490933776635  0.5737389011680665  0.3627208608968741
  0.9475479601574467  0.8082097696391521  0.4562307326720232
  -0.0644272446886714  0.2978065138411491  0.4130877051619338
  0.5586964561986063  0.9316803644249683  0.3818981270913537
  0.3419913900064484  0.1724411784537634  0.4552051323030183
