1-pos-1
1.000
11.0985002518  0.0000000000000000  0.0000000000000000
0.0000000000000000  14.4173002243  0.0000000000000000
0.0000000000000000  0.0000000000000000  26.7964000702
Pt  H  C  O  K  
96  168  6  81  4  
Direct
  0.0000000000000000  0.0000000000000000  0.0018699899937576
  0.1249999521128992  0.1666699702868031  0.0018699899937576
  0.2499999943280624  0.0000000000000000  0.0018699899937576
  0.3749999464409617  0.1666699702868031  0.0018699899937576
  0.4999999886561249  0.0000000000000000  0.0018699899937576
  0.6249999407690242  0.1666699702868031  0.0018699899937576
  0.7499999829841874  0.0000000000000000  0.0018699899937576
  0.8749999350970866  0.1666699702868031  0.0018699899937576
  0.0000000000000000  0.3333300219343480  0.0018699899937576
  0.1249999521128992  0.4999999922211510  0.0018699899937576
  0.2499999943280624  0.3333300219343480  0.0018699899937576
  0.3749999464409617  0.4999999922211510  0.0018699899937576
  0.4999999886561249  0.3333300219343480  0.0018699899937576
  0.6249999407690242  0.4999999922211510  0.0018699899937576
  0.7499999829841874  0.3333300219343480  0.0018699899937576
  0.8749999350970866  0.4999999922211510  0.0018699899937576
  0.0000000000000000  0.6666700318690679  0.0018699899937576
  0.1249999521128992  0.8333299447943854  0.0018699899937576
  0.2499999943280624  0.6666700318690679  0.0018699899937576
  0.3749999464409617  0.8333299447943854  0.0018699899937576
  0.4999999886561249  0.6666700318690679  0.0018699899937576
  0.6249999407690242  0.8333299447943854  0.0018699899937576
  0.7499999829841874  0.6666700318690679  0.0018699899937576
  0.8749999350970866  0.8333299447943854  0.0018699899937576
  0.0000000000000000  0.2222199683821562  0.0864100026098289
  0.1249999521128992  0.0555599860957249  0.0864100026098289
  0.2499999943280624  0.2222199683821562  0.0864100026098289
  0.3749999464409617  0.0555599860957249  0.0864100026098289
  0.4999999886561249  0.2222199683821562  0.0864100026098289
  0.6249999407690242  0.0555599860957249  0.0864100026098289
  0.7499999829841874  0.2222199683821562  0.0864100026098289
  0.8749999350970866  0.0555599860957249  0.0864100026098289
  0.0000000000000000  0.5555599783168760  0.0864100026098289
  0.1249999521128992  0.3888900080300730  0.0864100026098289
  0.2499999943280624  0.5555599783168760  0.0864100026098289
  0.3749999464409617  0.3888900080300730  0.0864100026098289
  0.4999999886561249  0.5555599783168760  0.0864100026098289
  0.6249999407690242  0.3888900080300730  0.0864100026098289
  0.7499999829841874  0.5555599783168760  0.0864100026098289
  0.8749999350970866  0.3888900080300730  0.0864100026098289
  0.0000000000000000  0.8888900002512240  0.0864100026098289
  0.1249999521128992  0.7222199606033073  0.0864100026098289
  0.2499999943280624  0.8888900002512240  0.0864100026098289
  0.3749999464409617  0.7222199606033073  0.0864100026098289
  0.4999999886561249  0.8888900002512240  0.0864100026098289
  0.6249999407690242  0.7222199606033073  0.0864100026098289
  0.7499999829841874  0.8888900002512240  0.0864100026098289
  0.8749999350970866  0.7222199606033073  0.0864100026098289
  0.8809052317419527  0.2861668762398487  0.1726069699990667
  0.0123213992699438  0.4528960432824050  0.1720241628138072
  0.1249283264083477  0.6191399519692945  0.1729192249951885
  0.1287374972459250  0.9547599876015159  0.1712403904733070
  0.0025710161600773  0.1195374704270387  0.1716210007147305
  0.7555180344605630  0.7856612101555902  0.1709935328998020
  0.1270991014007700  0.2813159392674658  0.1725777927813079
  0.0028860029259183  0.7890324023513441  0.1712709193502404
  0.2554741509547784  0.7842632160799706  0.1702078774444107
  0.8788648811372548  0.9590068250084808  0.1701228324124650
  0.3794411760288968  0.9567033274754249  0.1726348857115520
  0.8802600074469999  0.6101469934900452  0.1700695200385544
  0.2552210016520567  0.1187727389774281  0.1716224548802117
  0.5034326040758363  0.1183503121079554  0.1701977903693077
  0.6295361683815643  0.9433920016991514  0.1682611287967066
  0.2560943537969493  0.4535741494221053  0.1746981702257090
  0.7512882838694968  0.1180589511919276  0.1702012734192604
  0.7521437558327883  0.4470241734327841  0.1707932755971068
  0.6323446926319418  0.2822435660902366  0.1767992642067103
  0.3736202739940005  0.2890106313647434  0.1764361780654931
  0.3846017184085495  0.6130243394462653  0.1773806272203684
  0.5066128962323623  0.7796571104383559  0.1693409893012592
  0.5031014999431492  0.4530442543043547  0.1712279222985102
  0.6291504527440569  0.6169070568849748  0.1719851443300832
  0.0138654950046104  0.0120561455054557  0.2588168917552751
  0.1381618958337464  0.5141229405979084  0.2611803164292644
  0.8810680698605271  0.8485008925028438  0.2567474648712636
  0.2593670703690923  0.3451168801363836  0.2628379043509120
  0.8907671854939696  0.1839727979049407  0.2574459078319213
  0.6365423399665394  0.8525761417371610  0.2629113768918072
  0.7658182088811077  0.3495559950194967  0.2600624253796636
  0.2518483775901769  0.6833903817785256  0.2540921848443346
  0.1299911487019172  0.8494166952949467  0.2545242564983504
  0.7536157262368391  0.6868031468756323  0.2558253455516808
  0.0036736598887212  0.6789501730220968  0.2580813856593679
  0.0093515537275559  0.3540258566785737  0.2604571970531827
  0.2607632054908163  0.0123446802890339  0.2598832249203698
  0.8779934092464079  0.5182851176883777  0.2553784577097085
  0.5088561451069985  0.0172137184659377  0.2602882667047725
  0.3821649028671331  0.8494114008987136  0.2593462213653288
  0.6403741744158024  0.1804968889469282  0.2612683638309236
  0.3832469847815839  0.1803041348697594  0.2652794280902429
  0.1391176474541763  0.1813629517538159  0.2594550695797291
  0.7677313715804154  0.0251721484018427  0.2627341257689863
  0.3846662027428076  0.5116403258889719  0.2673050303785279
  0.6369393640598880  0.5178758270716745  0.2638704608483339
  0.5171209807261284  0.3478265576482769  0.2612631011426658
  0.5048935189050603  0.6848880646084640  0.2584323453806500
  0.4610991998463955  0.8168737570193598  0.4783380537169422
  0.4235656638776560  0.7206797200274351  0.4590305446095765
  0.1154046853846105  0.9602295742212832  0.4671324550203498
  0.2088937056449579  0.9567629967468292  0.4239126100760301
  0.7907689697873022  0.6132219826634883  0.8798441342581445
  0.6781251103705993  0.5910409357805912  0.9159148090490804
  0.7831623322250506  0.6378602433346012  0.7342125009463317
  0.6694880021014480  0.6759072170235766  0.7593968735535497
  0.3040870107339632  0.1973414915578023  0.7755148972682470
  0.2038593819316311  0.1895900152993251  0.8183370778034638
  0.2571113181744713  0.5861217657073715  0.8865476526124536
  0.1101032323896027  0.5885275810583996  0.8912533885646584
  0.2291883496319659  0.8537500697220604  0.8296044279553138
  0.2651202074553076  0.9348007939159331  0.7891971833753175
  0.4419173073771430  0.1949331971295932  0.3585444719787053
  0.5544177796276616  0.1817117719713157  0.3941276528090429
  0.5274713397200267  0.1509178925214233  0.9209857896190085
  0.5086569520944433  0.2339926687948121  0.8832742950020952
  0.6063747879366427  0.1429969718897283  0.8388063205436475
  0.7131468735351278  0.1746385534135083  0.7953313063869677
  0.1424690065888457  0.3507267268789576  0.8582150430301573
  0.1345812718576777  0.4568670592430427  0.8662210120721919
  0.3194808864039926  0.4118159879956492  0.5719840767769819
  0.4108697634403742  0.4113696432501085  0.6210558932058738
  0.6358899640116148  0.3644670058089969  0.5774084208351096
  0.7618101005249552  0.3479049115066572  0.6044181038635731
  0.6574510466147521  0.8111586781822608  0.3588702573594702
  0.6024918876778431  0.8104103464188829  0.4127513822164490
  0.2307648617284685  0.8524647357682894  0.6825553724673692
  0.2763561977306401  0.9501060598719047  0.6872944072767958
  0.7388433843906145  0.9429715559842328  0.4093921316356179
  0.7156806002875725  1.0267071847093130  0.4470251460352448
  0.7482427876192698  0.1439845398309162  0.3880279025600618
  0.7122069389977287  0.1994472503980622  0.3447798702436317
  0.8485866286818837  0.3911073294427269  0.8192640712926983
  0.9841155023471383  0.3948204793714334  0.8083337900335480
  0.1250979939091161  0.6683637720506618  0.7492251465123820
  0.1577190438425323  0.5653625241958748  0.7699032345745246
  0.1768271771928564  0.2726950192362306  0.3702784079990766
  0.1170291580873143  0.3574015622019955  0.3424453413839298
  0.4656990510552758  0.8199998157750786  0.8867841792385451
  0.4152363488708822  0.9179082482720884  0.8669280885918127
  0.4821899192309392  0.3975557301872230  0.8274535086322329
  0.3889379641722233  0.4434922164985605  0.7874535633712275
  0.6082929381927141  0.9529947552137554  0.8884403632887808
  0.7198247082892406  1.0117894136041863  0.9079687044476347
  0.1807915750395712  0.8022239655178961  0.7473798331430317
  0.0778849827173547  0.7888956374668425  0.7061853265112400
  0.2282525274700197  0.5123139435808357  0.4242201951762081
  0.1840052201259166  0.4157714400298576  0.4250198181943697
  0.9310419222745095  0.5067542060049407  0.3454810519676983
  -0.0429841810223529  0.5666211591079380  0.3887672502540841
  0.8769137763024833  0.1868688617414713  0.8258894860773297
  0.8726250020699216  0.2670701442708528  0.7857827846478650
  0.7953168028147253  0.3647384004417732  0.9145451524682020
  0.7613233164931107  0.4655030869571735  0.8905046475864882
  0.6748596603838660  0.7190883688352521  0.6253347010046686
  0.5718813632473102  0.7025645369115420  0.6649729391417839
  0.3839090145273424  0.8678123753580549  0.6287051329195302
  0.5106542149585320  0.8219151306655501  0.6175285320061462
  0.0474055000192184  0.7170917905055948  0.5390568061141875
  0.0640028927318171  0.6484039993662464  0.4987972246825855
  0.4251693322469128  0.2157811099859403  0.6192713674123073
  0.4602988931834697  0.1120914879525209  0.6121979709372790
  0.8154946923600880  0.1900809720797124  0.5821797565356159
  0.9095968121965601  0.2484012036708406  0.6124837415810945
  0.9321197657243990  0.9145807221157598  0.3339086249481130
  0.0524131949094344  0.9100537069683612  0.3594066847848834
  0.9195023331683843  0.8734909799321630  0.7208603401537372
  0.8683976272412918  0.7692679847789247  0.7286762318276682
  0.8488820121143855  0.7815625003846443  0.6474069280669058
  0.8945069042450026  0.6997766095066418  0.6160832938883937
  0.2838143256778441  0.4109910687032040  0.4893378756903345
  0.4089964371414783  0.3625974834032298  0.5048526877289241
  0.5883614553543799  0.9604339040371412  0.7520652438724985
  0.5959877828382462  0.0622392155285486  0.7615750824415752
  0.6902688229031230  0.8245560251192723  0.7925535059546335
  0.5642097874516353  0.8628770890497298  0.8123399688381175
  0.2291310918687022  0.1339019989502737  0.3392575421282008
  0.1284048987401583  0.1206009509026799  0.3759252303783362
  0.7443411908613675  0.6134516794131210  0.5116784875535583
  0.6337188494598002  0.6743590082707077  0.5028875834028933
  0.9462620608038215  0.0555007000930266  0.3746471090146353
  0.9495579911340539  0.1279007771019439  0.3323640787780464
  0.4380115369111767  0.6324921499262699  0.8455263321171520
  0.4564704031140021  0.6215756606563351  0.9022725804794848
  0.9256628010558280  0.8735922972299422  0.9013984836814581
  0.7824442404091129  0.8560178070439823  0.9065247953927378
  -0.0108432962625272  0.6210843968697862  0.8330940726894954
  -0.0567072365023307  0.7082971587626634  0.8724115304241132
  0.7947211097255686  0.0360308411435069  0.5871382448568798
  0.6695015313077906  0.0649904772615286  0.6125625485363000
  0.0952003177482146  0.4038507379409653  0.6661586819063628
  0.2106195054255988  0.4462405142716218  0.6463835842025001
  0.6276775744786040  0.6051420944328431  0.8323712445876139
  0.5551027096927637  0.5407528042150157  0.7950093610817253
  0.4198652208927275  0.3061511931242526  0.7696715737848762
  0.4902660254674969  0.2190510032299293  0.7607319904762062
  0.2123357623222827  0.7372957766658499  0.8923448050431175
  0.1949284513147737  0.8355447261059504  0.9136235553381659
  0.1094046666262923  0.1981807068901991  0.8887975474170565
  0.2479074265870982  0.2221454525100244  0.9034001078048286
  0.9185656980857914  0.5750918268959447  0.6692449321221883
  0.0158524697579266  0.5555097851122718  0.6380022956745025
  0.0876634888341968  0.2336365347946790  0.6223608305000027
  0.0519370272309102  0.2146352692222059  0.6785615027714537
  0.8580892839242346  0.5483419608253208  0.5826905907060321
  0.7579934582004096  0.4813990361456165  0.5716234564856486
  0.2112486636759550  0.4579643880739520  0.7298607699080389
  0.1749352180340868  0.4296315653439715  0.7879545597836123
  0.9851863608983261  0.5809156175359205  0.7434346066304015
  0.8959896253808903  0.4923388682741145  0.7427453672567687
  0.6080518556464876  0.3010805490117867  0.4827616188745553
  0.5802673308004401  0.2278691612638252  0.5234436744620268
  -0.0848353558803854  0.5316249567156487  0.5059245847458649
  0.0426049006867672  0.5114325637453390  0.4687535001490313
  0.4493577195703677  0.5400822977089705  0.5785583815357734
  0.4979560915181921  0.6335630342915672  0.5820402919549182
  0.2901530791493854  0.0695473886789150  0.7469498109993925
  0.4184236203127389  1.0215338442960857  0.7391692379614545
  0.1018518993425861  0.9837309217085830  0.8600320376851275
  -0.0242124955717704  0.9628956538479816  0.8366697337614674
  0.4839290054734132  0.7703237992631333  0.7483765525019765
  0.4218847025246143  0.6761001401545877  0.7549534882485059
  0.0660112646374162  0.9161756239241611  0.7709784276610782
  0.0098941054925138  0.0130664315141670  0.7492904997424955
  -0.0466428971262169  0.2344241268003488  0.5236213807168790
  0.0231913860215713  0.1523714709913145  0.4962410846406187
  0.1985466003519364  0.8263394909485169  0.3705951029945897
  0.2393480367195715  0.9016036287495097  0.3302615215855728
  0.4573389552680138  0.3247756944818248  0.6874888386924468
  0.5764255345367437  0.3492374303348092  0.6523037322143377
  0.3865703163726264  0.6244245604961797  0.5106348224259017
  0.2539241955365038  0.6633615579413623  0.4958948770651349
  -0.0658691200535348  0.9653164914845020  0.5134267337574242
  0.9088512437492684  0.9791640693800850  0.4557046977507997
  0.5426633937791014  0.0099093275840371  0.6685728870693892
  0.5094201914157764  0.9651150152403503  0.6201975949591038
  0.3373024774669762  0.0654082680133538  0.8745637839338726
  0.2895104983647571  1.0123263990022535  0.9200781368396692
  -0.0184568523721732  0.0906364073002749  0.8868522555172699
  -0.0792751647554637  0.1665734983067262  0.9217228563648495
  0.8767140578765960  0.8699163128933830  0.5862507998889849
  -0.0367853917590159  0.9588793324702521  0.5962978255452185
  0.0361901832578557  1.0493978661899286  0.6621930270265428
  0.1291691210141204  0.9786929592489002  0.6478882384842085
  0.5584671080576639  0.0287607020211118  0.5104987735764127
  0.6828787673425351  0.0725075052497046  0.5285427820190882
  0.7430590374823385  0.4123910739389957  0.4830851532439963
  0.7611346527770684  0.4578867594692487  0.4340037034763229
  0.9730985147879258  0.1545573699050989  0.7427920596071113
  0.1064344002612802  0.1250926023209429  0.7451587545487399
  0.1637433817965866  0.6726219930382864  0.3725664897951155
  0.0806230442581536  0.7331098452597548  0.3395834205438508
  0.3247002905474133  0.9557155879764584  0.5039167658538103
  0.4140335689459249  0.9203916854234943  0.5468774413581378
  0.2535039186797957  0.1534123032044572  0.5939353415348979
  0.1373110543068952  0.1029525521150106  0.5885876383387749
  0.5082786141924985  0.3626318663523456  0.9150547394412368
  0.6327890689069434  0.3790369325936213  0.8792086500940258
  0.3370060750048989  0.3964549378160375  0.3549779917668248
  0.4289960342729917  0.6394097890922977  0.4015020786603631
  0.5830276046757353  0.5459270665484216  0.4109433493025845
  0.2017286573054669  0.5366547114736011  0.3353725779864775
  0.4581251341482264  0.6761307277676040  0.3438819525368887
  0.6496140804007005  0.6276994667869163  0.3670304361195706
  0.5385281181149362  0.3502196570124594  0.3616255375876569
  0.7110891751721174  0.4621830743781663  0.3531209054466612
  0.4040195165083467  0.4453642526620656  0.3433811811957816
  0.5235320646550998  0.4099772371693803  0.3367505561888952
  0.3723867455541755  0.5418997503798829  0.3478886131785695
  0.6199136492594263  0.4816391916564356  0.3405368475875235
  0.4593054233136815  0.6129297788989513  0.3645925135841235
  0.5821623981629507  0.5742992793022738  0.3721489163684355
  0.4823996733461064  0.7721379542708730  0.4509830063979114
  0.1987350395421469  0.9736228421213678  0.4602470646837133
  0.7138858153122990  0.5788773455264030  0.8823906716184329
  0.7383947080120928  0.6978210721479565  0.7374007590398138
  0.2170761224345842  0.1750154400091582  0.7828805284867291
  0.1807192248497454  0.5497556939364373  0.8979197157403992
  0.2105091340535928  0.8828929526102052  0.7976322774740716
  0.4676526485151203  0.1654564213610124  0.3905173791847293
  0.5073741204526013  0.1647106749082974  0.8857425028407128
  0.6319428509957913  0.1528336427846694  0.8032626661570570
  0.1033557396832927  0.4042240047188139  0.8429169216136209
  0.3394170175460463  0.4467723959957101  0.6031176755370549
  0.6920479573313802  0.3821211419260352  0.6048880756719879
  0.6648565089867217  0.8422977259800809  0.3919213977693690
  0.2548634910956771  0.9045512195354999  0.6609525685689545
  0.7725559194909599  1.0028942710043360  0.4191783920106311
  0.7130399980859150  0.2027632770296933  0.3814844333462626
  0.9041421524113173  0.3975745023772856  0.7875133945536176
  0.1032015685915975  0.6180702315597821  0.7743920397903329
  0.1488105718727303  0.3362899635209201  0.3775001153251740
  0.4843414804561711  0.8781967764019936  0.8732015170956267
  0.4743624392175102  0.4256068841417170  0.7896687939150502
  0.6955690798896882  0.9536774672365939  0.8926899359105389
  0.1609845964197034  0.7656257187663538  0.7180844244521828
  0.1921281631051159  0.4673214791867959  0.4477955425678357
  0.9190485493790670  0.5062395864933421  0.3819741437463769
  0.8565100429365023  0.1999150571853990  0.7908006321030360
  0.7621920718907992  0.3959693441063220  0.8839695281920459
  0.5882086650979013  0.7166374290441500  0.6299825245658084
  0.4524232121800094  0.8653917034529794  0.6041594003854254
  0.0928318793463020  0.7106130081020373  0.5087873726837607
  0.4180341970121177  0.1631890506125763  0.5941487393079203
  0.8672816299606689  0.2448783799514319  0.5803752803942938
  0.9680451374371521  0.9191498791892160  0.3688002609906637
  0.9200615402737760  0.8091171810404872  0.7069304576015241
  0.8498703948103468  0.7587033240705849  0.6129534475515617
  0.3230536919813560  0.3613967633633694  0.5087413074251153
  0.5573216603384606  1.0196297785505637  0.7374057362456942
  0.6142532834825448  0.8502685177657933  0.7812856246717376
  0.2134680100147547  0.1412998730349260  0.3746578713073032
  0.7164136094163223  0.6670395229538842  0.4949493242545475
  0.9708948774995422  0.1197895771698722  0.3696937553271148
  0.3952822750703178  0.6422896213947438  0.8783004672957302
  0.8628529786307716  0.8281738739944789  0.9099298649640595
  -0.0591109148277579  0.6402832726990811  0.8619816469670885
  0.7318827237204963  0.0825331646069521  0.5901562352357418
  0.1411642033567467  0.4597111514352055  0.6685781680623446
  0.5731813216626519  0.6082521975868597  0.8037556574792268
  0.4135380846124350  0.2422948161828687  0.7546677482655253
  0.1915480511842321  0.8009086632279405  0.8798849474642890
  0.1823067905658557  0.2351297521491816  0.8786541036899913
  -0.0657827848029819  0.5810766037236180  0.6334807656300716
  0.0311632088348069  0.2537036657969431  0.6490645624052361
  0.8063954457854328  0.5254303970331451  0.5540468258910120
  0.2375841024081022  0.4622055129828265  0.7641251812690665
  0.9104268268734085  0.5531628662943525  0.7268634366323158
  0.5754739424512917  0.2925986163407940  0.5155307002548755
  -0.0184859859301013  0.5535551033229239  0.4850330142799287
  0.4862140946047926  0.5863365082425087  0.5577298342780137
  0.3242131245450408  1.0129143755559853  0.7368455175498740
  0.0162191950007665  0.9800386291592279  0.8684560460821000
  0.4278184771703660  0.7300343544736737  0.7320443333250171
  -0.0084275044806014  0.9502156105905155  0.7617329315701492
  -0.0018149102439974  0.2163939371770609  0.4914210583735965
  0.2237262566982681  0.8922601053641152  0.3666649052581736
  0.4924022337084396  0.3246796216055961  0.6527926468583076
  0.3280223435062372  0.6348043368809270  0.4816443460087387
  -0.0259277810489151  0.9597644525066992  0.4800998732589821
  0.5322596509147199  0.0259187854304493  0.6351993074222286
  0.2912129330064949  1.0072753011290707  0.8829968840520972
  -0.0338285506313440  0.1611122685567005  0.8885035872589993
  0.8914114435502634  0.9356387957617736  0.5789183779336003
  0.0595024223379096  1.0132264432961309  0.6329782995165366
  0.6249589380758966  0.0654413166141727  0.4991616834447481
  0.7179571656997238  0.4085311716248159  0.4502185306457084
  0.0291200190176672  0.1127260756324375  0.7296558863234672
  0.1063949053124082  0.7236203485390438  0.3755861255442468
  0.4092465370952581  0.9526311838711010  0.5165179294883059
  0.1692727463240188  0.1657924177212627  0.5843741649690606
  0.5427891290197502  0.3647947638029683  0.8798469061827241
  0.2554644050163592  0.5621746341620296  0.3627765095958072
  0.9048049282759039  0.7761822579402745  0.4319369292583343
  -0.0782890435902887  0.3118746288935182  0.4128583274326904
  0.4600603354558551  0.9846360668603782  0.3812505577143277
  0.2846127812888680  0.1834454272681564  0.4774224985552142
