1-pos-1
1.000
11.0985002518  0.0000000000000000  0.0000000000000000
0.0000000000000000  14.4173002243  0.0000000000000000
0.0000000000000000  0.0000000000000000  26.7964000702
Pt  H  C  O  K  
96  168  6  81  4  
Direct
  0.0000000000000000  0.0000000000000000  0.0018699899937576
  0.1249999521128992  0.1666699702868031  0.0018699899937576
  0.2499999943280624  0.0000000000000000  0.0018699899937576
  0.3749999464409617  0.1666699702868031  0.0018699899937576
  0.4999999886561249  0.0000000000000000  0.0018699899937576
  0.6249999407690242  0.1666699702868031  0.0018699899937576
  0.7499999829841874  0.0000000000000000  0.0018699899937576
  0.8749999350970866  0.1666699702868031  0.0018699899937576
  0.0000000000000000  0.3333300219343480  0.0018699899937576
  0.1249999521128992  0.4999999922211510  0.0018699899937576
  0.2499999943280624  0.3333300219343480  0.0018699899937576
  0.3749999464409617  0.4999999922211510  0.0018699899937576
  0.4999999886561249  0.3333300219343480  0.0018699899937576
  0.6249999407690242  0.4999999922211510  0.0018699899937576
  0.7499999829841874  0.3333300219343480  0.0018699899937576
  0.8749999350970866  0.4999999922211510  0.0018699899937576
  0.0000000000000000  0.6666700318690679  0.0018699899937576
  0.1249999521128992  0.8333299447943854  0.0018699899937576
  0.2499999943280624  0.6666700318690679  0.0018699899937576
  0.3749999464409617  0.8333299447943854  0.0018699899937576
  0.4999999886561249  0.6666700318690679  0.0018699899937576
  0.6249999407690242  0.8333299447943854  0.0018699899937576
  0.7499999829841874  0.6666700318690679  0.0018699899937576
  0.8749999350970866  0.8333299447943854  0.0018699899937576
  0.0000000000000000  0.2222199683821562  0.0864100026098289
  0.1249999521128992  0.0555599860957249  0.0864100026098289
  0.2499999943280624  0.2222199683821562  0.0864100026098289
  0.3749999464409617  0.0555599860957249  0.0864100026098289
  0.4999999886561249  0.2222199683821562  0.0864100026098289
  0.6249999407690242  0.0555599860957249  0.0864100026098289
  0.7499999829841874  0.2222199683821562  0.0864100026098289
  0.8749999350970866  0.0555599860957249  0.0864100026098289
  0.0000000000000000  0.5555599783168760  0.0864100026098289
  0.1249999521128992  0.3888900080300730  0.0864100026098289
  0.2499999943280624  0.5555599783168760  0.0864100026098289
  0.3749999464409617  0.3888900080300730  0.0864100026098289
  0.4999999886561249  0.5555599783168760  0.0864100026098289
  0.6249999407690242  0.3888900080300730  0.0864100026098289
  0.7499999829841874  0.5555599783168760  0.0864100026098289
  0.8749999350970866  0.3888900080300730  0.0864100026098289
  0.0000000000000000  0.8888900002512240  0.0864100026098289
  0.1249999521128992  0.7222199606033073  0.0864100026098289
  0.2499999943280624  0.8888900002512240  0.0864100026098289
  0.3749999464409617  0.7222199606033073  0.0864100026098289
  0.4999999886561249  0.8888900002512240  0.0864100026098289
  0.6249999407690242  0.7222199606033073  0.0864100026098289
  0.7499999829841874  0.8888900002512240  0.0864100026098289
  0.8749999350970866  0.7222199606033073  0.0864100026098289
  0.8781346097207464  0.2800498759604650  0.1737622827731295
  -0.0036298233622571  0.4499598381162914  0.1730209801709904
  0.1230988016041557  0.6158877070711151  0.1703966075755758
  0.1276787673875286  0.9463808199473398  0.1700219380612493
  0.0049769485648335  0.1211731570488830  0.1727139576389172
  0.7409166350981836  0.7838052053083790  0.1710530540890595
  0.1241376963321285  0.2822274663075874  0.1731112609174214
  -0.0083460009549468  0.7840468900791606  0.1698564973756204
  0.2479775634328287  0.7792972047126464  0.1707211194942372
  0.8756332052453537  0.9497399361373720  0.1698832156175530
  0.3767827646011713  0.9499043358629187  0.1718167373766052
  0.8750557310051779  0.6145008304375620  0.1685830208783819
  0.2571593310580060  0.1142636168818482  0.1704503439616659
  0.5090516755886640  0.1192351372209470  0.1744073559454480
  0.6286028187068351  0.9527215957637384  0.1740150635601850
  0.2509045132064913  0.4514915315510151  0.1722231185050954
  0.7630744951171637  0.1192575175067827  0.1758446635315081
  0.7517212085071495  0.4529564275905942  0.1712191427609834
  0.6291794884148852  0.2915349101363445  0.1741432407403661
  0.3740351563560794  0.2850381031168078  0.1736951422021839
  0.3788607877373387  0.6203074201455921  0.1720298878178972
  0.4981378837652728  0.7815368070444046  0.1712677748233719
  0.4911529818018362  0.4527723806567912  0.1730970181012595
  0.6176637801479713  0.6177286361831595  0.1748273091059666
  0.0107362027658354  0.0103905733645963  0.2582356525903426
  0.1207011559857142  0.5141012289462725  0.2556018708093904
  0.8829302860456956  0.8492529094568728  0.2556679116505244
  0.2477722948966920  0.3438552327324306  0.2614430928052535
  0.8982246849868922  0.1759689448322616  0.2642408550906201
  0.6309628043270320  0.8515351998987782  0.2596114131217357
  0.7515239497108860  0.3497086983457610  0.2586078295347782
  0.2574489786344413  0.6850276022034854  0.2564662388826883
  0.1244115237260151  0.8462919560026297  0.2595943890887012
  0.7486838922179929  0.6898954343432164  0.2575278028959692
  -0.0073230208006544  0.6843012331581665  0.2599526722340061
  -0.0023236319696274  0.3511942355730360  0.2580684106291740
  0.2495782186742537  0.0115382726940527  0.2547523148675340
  0.8722137655067418  0.5271027441872510  0.2590588797828837
  0.5010787725393850  0.0134430721344995  0.2589989098915629
  0.3839175382736013  0.8542336817847576  0.2616041492489808
  0.6404742427020395  0.1851302193874922  0.2633110685097835
  0.3885073501981213  0.1808517852950930  0.2572184989492343
  0.1422709672636996  0.1803324703135419  0.2603675710215625
  0.7568007309580190  0.0187794219436216  0.2617734196990456
  0.3672959399391703  0.5200989988584406  0.2670481849148847
  0.6225882381702285  0.5193374831079747  0.2632966290813907
  0.4940774044232382  0.3521547207807076  0.2657535013451099
  0.5001170952895000  0.6862219194565157  0.2564607971778467
  0.4523514963461633  0.7919670068086119  0.4725906350003783
  0.4446016217371096  0.6947889446677838  0.4469695542805279
  0.1090127230932645  0.8769706047315026  0.4781861534546182
  0.1777388412889453  0.8645906550097672  0.4261607037767580
  0.7196124495563891  0.6351176945435762  0.8828411367319696
  0.6303919577751322  0.6166148312855593  0.9294510599428480
  0.8055948520747143  0.6521209805878537  0.8052732793535630
  0.8963817639763095  0.7038403495958750  0.8382527692173073
  0.3157412727212098  0.1953009061262516  0.7616767813150381
  0.2638010849641741  0.1466083876187455  0.8092763150008510
  0.1787740881817078  0.5246248987068755  0.8982366691661486
  0.0425457148882271  0.5486337879243299  0.9015134557968142
  0.2049250364463554  0.8267264231281352  0.8208637383034798
  0.2400727882100889  0.8717322645481784  0.7691011485314855
  0.2843090258873710  0.0271359207766650  0.3359394318123722
  0.3493153531866823  0.1092827208692256  0.3574358107398011
  0.5099163586253151  0.1442144165865111  0.8935639870979611
  0.4872223451112684  0.2447328466291485  0.8766049051724237
  0.5718246589101725  0.1492663110720847  0.8182881541869867
  0.7176909762657486  0.1645446887484221  0.7948484034423147
  0.1230405285956116  0.2963515532192815  0.8600684042753204
  0.0952477073493379  0.3962420697719340  0.8708879758648050
  0.2455934310455984  0.3807718198825634  0.5714730092356658
  0.3378028594441807  0.3844013198781175  0.6149163229401290
  0.5753489561767025  0.2583907151368816  0.5328039030055218
  0.6896133496828722  0.2571653039832578  0.5695943532084338
  0.7196696959487472  0.7399366132030419  0.3729635494811974
  0.6227851395668514  0.7554077558739876  0.4152104235401856
  0.2009413036899562  0.8062557862191136  0.6839986064577069
  0.2490652079186719  0.9126612900120046  0.6924221511506010
  0.7203566916893440  0.8722564262832073  0.4297890486083507
  0.6769695492218828  0.9506326110279391  0.4695284040184169
  0.5811487953747563  0.1149084829493752  0.3756508899228742
  0.5138998523584284  0.1957019410641420  0.3462852592508984
  0.7787355814222084  0.3847604486622482  0.8452925967391314
  0.9184599037736446  0.3684478741829012  0.8330935481376913
  0.1207872412925866  0.6241822004325313  0.7543249360715018
  0.1500158609835569  0.5229960745765143  0.7718658527755601
  0.1505877210327532  0.2497556779271987  0.3439162985758190
  0.1333247168111759  0.3154927628498383  0.3890814829598931
  0.5379162981531446  0.8551788509071312  0.9136733466197001
  0.4927800507742472  0.9343422632550499  0.8877499543364016
  0.4055904203696294  0.3811110269687664  0.8212588663756187
  0.3177858950652351  0.3988510371663010  0.7703082092678256
  0.6787830460046338  0.9978173958431578  0.8743081228494712
  0.7140859243675418  1.0498697446133614  0.9210100218889513
  0.1428726182118912  0.7601383754309727  0.7487587567261698
  0.0329332965542547  0.7479935323691017  0.7083820429860571
  0.2748692664132917  0.4930369869748014  0.4845386817589446
  0.2592319565009139  0.4666614851343753  0.4300445750776549
  1.0039766996259554  0.3963220291875018  0.3405308517373503
  0.0302039379010360  0.4787529541742013  0.3797636541938690
  0.8799025381934982  0.1796767919651041  0.8311892754269421
  0.8538173169715546  0.2590408023553056  0.8020824924651747
  0.7104565149711266  0.3877787369910614  0.9281798257990542
  0.6877628013804862  0.4781289912088718  0.8967950500457147
  0.6674554262949699  0.6777105313054128  0.6358374221299956
  0.5645850970705475  0.7052488642473056  0.6767241897192892
  0.3513042760951104  0.8248461818708774  0.6243518241357235
  0.4718273138526721  0.7622307027898186  0.6127529349421841
  0.0579802841825980  0.6431822526987869  0.5773395315031409
  0.0433444671339247  0.5831208209238899  0.5307119401764424
  0.3873344435706795  0.1851543554805600  0.6224841995604488
  0.4275048595895189  0.0842308293235921  0.6149837817814385
  0.7740568586468876  0.1211279719871956  0.5773194416105213
  0.8773441273942197  0.1880067078391998  0.5934219481065284
  0.8957924826183226  0.8586457122003265  0.3491060214354449
  0.0314416275787717  0.8461340947828041  0.3630681313725955
  0.8837541696689373  0.8522508781214324  0.7416998933936151
  0.7905051293193501  0.7757070132208469  0.7497904559778444
  0.8360501051567855  0.7205049638830250  0.6699475004541536
  0.8550848905428322  0.6396161698191820  0.6335838774507924
  0.2685740049261671  0.3431858462904576  0.4890084693716920
  0.3457954928980218  0.2682123986280343  0.5188178159222503
  0.6034249056410874  0.9199302786901596  0.7643242997172917
  0.5913619338194409  0.0394230727360466  0.7651261126863365
  0.6852527253640909  0.7861356647825717  0.8158547370962890
  0.5937117283870240  0.8597099345138869  0.8300738816157698
  0.0096879117953403  0.0606311438896627  0.3439296742904322
  -0.0304747498064115  -0.0195133544022220  0.3848831468623100
  0.7375149075635217  0.5766018115505825  0.5204198192132723
  0.6522487495304559  0.6610155150433312  0.5092814838391888
  0.7166123815341714  -0.0227794938990352  0.3948021777471932
  0.7013639067078045  0.0202101620738183  0.3387678677179955
  0.3795449709718049  0.5764833171047833  0.8494167256523618
  0.3720765005010711  0.5940336327508103  0.9106160151092966
  0.9107683060835734  0.9015049808419353  0.9006233212250990
  0.7882376004434627  0.8481157943212410  0.9048042062472103
  0.0794977435944018  0.6304786099674453  0.8415349669964713
  0.0811644021771233  0.7193126744160256  0.8811107501920417
  0.7573123794394506  -0.0373200577520833  0.5888507565853128
  0.6430392956149664  0.0125098525933455  0.6159540798935687
  0.0578012333960129  0.3340293411996156  0.6441501964808951
  0.1539118875834560  0.4129206311155280  0.6376059850479937
  0.5332064376572166  0.5925610133581576  0.8077375017426529
  0.4411884101192736  0.5047968485690155  0.7903269960374917
  0.4588669103263784  0.3101594123886750  0.7558309280739453
  0.5270250056489709  0.2149383251502940  0.7532692291472175
  0.2656313597706018  0.7138404590586022  0.8775802663489821
  0.2858086080941922  0.8082465380695623  0.9022388414064141
  0.1310631128078847  0.1718973615755670  0.8857448778649636
  0.2575363390144929  0.1864628771528911  0.9070734532371305
  0.8533650508647725  0.5183641695345812  0.6834249535319508
  -0.0440257740428265  0.4896042869526027  0.6465877137118995
  0.0653642390900828  0.1756845252019422  0.6105072695937660
  0.0187018459603438  0.1792914346018278  0.6639711930479177
  0.8116372371698647  0.4844326247731380  0.5894262884052438
  0.7294123315523697  0.4251216794091270  0.5552046512637755
  0.1396251183261157  0.3980025290885279  0.7194681719183672
  0.1245757999938562  0.3627182847788621  0.7760192202431465
  0.9357738702502264  0.5369666702890539  0.7639926195335089
  0.8396317923305595  0.4650298251540726  0.7780436394322124
  0.4905252313452941  0.1792058048458545  0.4466724009136898
  0.5019556619099486  0.1256870380104733  0.4977981086323003
  -0.0653299019462027  0.4676577459027951  0.5002680381797996
  0.0724693199308217  0.4708478476544726  0.4762064764173660
  0.4002071626010575  0.5046757112567012  0.5861551142486271
  0.4809637481725754  0.5966729149193167  0.5976029849438086
  0.3029010120673537  0.0385597264086239  0.7549705901651365
  0.4009475181818637  0.9623042068664152  0.7503341170017818
  0.0883097170485753  0.9411330760131128  0.8847951157800071
  -0.0080248587988774  0.9757414188191409  0.8458982033339533
  0.5066873893063131  0.7708788688167597  0.7558714670529557
  0.4256984863187928  0.6830111274857709  0.7488468639828839
  0.0452465393347679  0.9037211805466584  0.7816734662539192
  -0.0251580811609853  -0.0035384729114550  0.7649297415922263
  -0.1122234264398019  0.1426829471257597  0.5170676494119304
  -0.1137152692045317  0.0667547502810450  0.4775847946729243
  0.1643480293028036  0.7403249848685334  0.3731073894070794
  0.2346298752822631  0.8104290972249141  0.3378776390478195
  0.4675485251584702  0.3018083310123526  0.6725905912616673
  0.5158817043655437  0.3026119851861397  0.6159910160117564
  0.3780235984604819  0.5972684728716667  0.5243449128722883
  0.2710801639268383  0.6560545721561568  0.5041304845094878
  -0.0550821398324384  0.8599944855696445  0.5297690497869196
  0.9153934683068815  0.8929796303263904  0.4748803050657328
  0.5646664730384270  -0.0222532791166577  0.6858973507206194
  0.5123506930296973  0.9230852267312176  0.6413677223424037
  0.3529602571360640  0.0550926620894839  0.8767551905611122
  0.3190333107237385  1.0046492076364633  0.9288930792939240
  -0.0784887622594521  0.1285032395092509  0.9072407474702460
  -0.0506030524357482  0.2362754957518680  0.9115020337811257
  0.8413503917419446  0.8129613591693845  0.6071718782178402
  -0.0808265120104414  0.9038188717633279  0.6117335059133432
  0.0077660420907790  0.9829362443264272  0.6840990142435643
  0.0984069849458144  0.9163437882310896  0.6593871721018876
  0.4997314812242747  -0.0454495946471015  0.5112167682267985
  0.6062756531999631  0.0002835960850082  0.5424866405269901
  0.7824805044529809  0.3788527290216152  0.4594259402101886
  0.8531150703145132  0.3950262496580922  0.4094845900924818
  0.9634909255658858  0.1554349460880984  0.7483997105455337
  0.1121209651455549  0.1421187761455167  0.7435698373177515
  0.1678357373914458  0.5759693652910095  0.3710343604048823
  0.0621410318649266  0.6042548727199706  0.3387563455284778
  0.3168439055114389  0.8525191261734139  0.4993151559928974
  0.4157994043971446  0.8395764027094541  0.5475434545372680
  0.2285667869844468  0.0928042434286592  0.5878808304671809
  0.1149254523820130  0.0363896322083750  0.5880845532092545
  0.4142779398103180  0.3964791191394875  0.9056561450613865
  0.5452283703934311  0.3909565213256610  0.8833390133260289
  0.3880378133614523  0.3405523287657268  0.3569572875401770
  0.4025911186221162  0.5643647989507726  0.4100248695763705
  0.6154971862069476  0.5532978143338421  0.4119791267214650
  0.2245741756140219  0.4308022200946822  0.3394255718033887
  0.4179464366771263  0.6390815289377355  0.3549569278515780
  0.6168549583345425  0.6288880515727917  0.3643141748229294
  0.6102427061711840  0.3365282963326492  0.3519472736633765
  0.7283607174932442  0.4791577773178688  0.3464605075599138
  0.4387241760354330  0.3989210615664518  0.3404398873990954
  0.5648453204551919  0.3982569950594741  0.3388604794454477
  0.3794065534860954  0.4903807520484139  0.3425873034418941
  0.6288921334455071  0.4851925560036421  0.3374112175707831
  0.4375494928796718  0.5709704615240944  0.3716058693224936
  0.5801665211437644  0.5612533938400993  0.3728299844392282
  0.4805210666400680  0.7567206159521940  0.4399136365899174
  0.1878901309897071  0.8921843997061197  0.4598223661245716
  0.6451159930404823  0.6048690725536590  0.8954645289978650
  0.8129568095866535  0.7117923282268511  0.8225563370137983
  0.2527701005858889  0.1512111998420875  0.7725367214837785
  0.1015980977985853  0.4968734350503415  0.9091026385067021
  0.1725166245042405  0.8411650921758352  0.7874470061471399
  0.2938156356550185  0.0615336583062016  0.3697173518512129
  0.4736405839831779  0.1789014644331741  0.8673274830318106
  0.6316940130954135  0.1369021844653881  0.7881936111854132
  0.0838334448250429  0.3510174485768338  0.8441612757698750
  0.2717261382150163  0.4213019709447655  0.5996564670628934
  0.6166176052651877  0.2940875210917557  0.5610633655496019
  0.7043079068122060  0.7742615178662539  0.4027798866648077
  0.2319242336893704  0.8635882798094754  0.6671484735660826
  0.7436161203998252  0.9296626780587670  0.4469672768477443
  0.5301644734878214  0.1719170893606290  0.3802659445449885
  0.8404677354390434  0.3788501344928603  0.8168061861242631
  0.1150647468330582  0.5791497560497950  0.7841641114422713
  0.1547210254395860  0.2473450630853559  0.3808823130928805
  0.5569156981816126  0.8907058691790193  0.8838766968642002
  0.3990234416476007  0.4015325926863033  0.7848008773942386
  0.7284461037146704  1.0520541803267081  0.8849211968875867
  0.1158554284928236  0.7245964169902148  0.7161093430882179
  0.2359173817809617  0.4429825565562909  0.4641156292755401
  1.0082172388458708  0.4102054518384800  0.3759341943772081
  0.8556964317462394  0.1886881217896038  0.7952262039630369
  0.7013474045231989  0.4073505052632103  0.8898204674894614
  0.5735940214145178  0.6914153811542750  0.6399136869160805
  0.4266921979780064  0.8233233738375817  0.6040627978569804
  0.0824101906247794  0.6429331065379859  0.5415079259858094
  0.3817491813105875  0.1319707127755522  0.5991065729143735
  0.8055707066321841  0.1819548968175398  0.5709573996849872
  0.9523622727931863  0.8576655093481876  0.3765818445412053
  0.8377297751461587  0.8063670998891511  0.7222861495348447
  0.8116367858205935  0.6993028289378993  0.6352278246670078
  0.2647829388590941  0.2944195468819887  0.5161104233616847
  0.5564814426163871  0.9782545650279526  0.7503623937627651
  0.6212482381195381  0.8201158022894736  0.8003636803232699
  -0.0009340601040504  0.0455982491986927  0.3813302883197225
  0.7298146450360563  0.6384288543833040  0.4993592930074554
  0.6750613174500663  0.0281522880140832  0.3735736521351797
  0.3244945131677507  0.5924098128028465  0.8785396823762339
  0.8714614087098272  0.8394250220580114  0.9085730040348022
  0.0339962961967593  0.6673236549575373  0.8672237047185777
  0.7072056072195005  0.0171121562818103  0.5883545733045300
  0.0785028152302555  0.3948655599406030  0.6556438042040649
  0.4551387572551300  0.5767998797849658  0.7963049217394648
  0.4657033195238909  0.2508637027412394  0.7367576216611043
  0.2387577629031666  0.7772601048990143  0.8756338524029535
  0.2137390111979562  0.1852363536481509  0.8745115098748075
  -0.1144748519777657  0.5303535550513410  0.6513777688522817
  0.0098481265684770  0.2132807781319055  0.6336787443804299
  0.7855204645858400  0.4807581979611950  0.5558080797040750
  0.1844021832470631  0.3850288927634175  0.7517481334107298
  0.8521729224330187  0.5220711097639260  0.7540259570079331
  0.4826603596311322  0.1857381436010165  0.4842096977955426
  -0.0028128172718595  0.5068544640059195  0.4867198412448041
  0.4559575914393727  0.5527190836512460  0.5695316744719020
  0.3131509865250783  0.9738980871144153  0.7448088320488729
  0.0152086835581793  0.9806673423481730  0.8821698237663148
  0.4515296081006302  0.7396521986777006  0.7308521942124380
  -0.0376446432059358  0.9376396508214039  0.7777145017130824
  -0.0681672809961237  0.1200488043859151  0.4875917611011575
  0.2030277852302206  0.8005571600462659  0.3739014048025899
  0.4502840075252049  0.3210570623061808  0.6377284170945151
  0.3331663193682678  0.6151545492374324  0.4937932412240343
  -0.0205039475818449  0.8602307591123332  0.4968047913721359
  0.5279383850759214  -0.0116214559933765  0.6507466658102425
  0.3503877199146166  0.9945245367598751  0.8923616687822324
  -0.0491382235912056  0.1826857320527138  0.8884621981322099
  0.8732453962172193  0.8693403363880174  0.5881159190605553
  0.0156587124798068  0.9412866345133560  0.6546927832821038
  0.5717678405035687  -0.0027274039167003  0.5091623393200879
  0.7797817523675230  0.3687121017664802  0.4242016303354572
  0.0288809633128597  0.1209898801344198  0.7321718259878767
  0.0902571595326618  0.6026102717869862  0.3736330819054409
  0.4004944363612651  0.8563351262042153  0.5098978228010170
  0.1457221258104400  0.0941383228818693  0.5743959039899914
  0.4610205868103812  0.3685283967690955  0.8775045139272135
  0.2614644370197103  0.4746555977010085  0.3637220137879235
  0.9295912265557443  0.6757561448834315  0.4491642274846125
  -0.1596421023383447  0.1866833871964179  0.3864012033659236
  0.4696622834382157  0.9185960921780706  0.3783992755383697
  0.1595263234519324  0.1085226524840552  0.4530762235895138
