1-pos-1
1.000
11.0985002518  0.0000000000000000  0.0000000000000000
0.0000000000000000  14.4173002243  0.0000000000000000
0.0000000000000000  0.0000000000000000  26.7964000702
Pt  H  C  O  K  
96  168  6  81  4  
Direct
  0.0000000000000000  0.0000000000000000  0.0018699899937576
  0.1249999521128992  0.1666699702868031  0.0018699899937576
  0.2499999943280624  0.0000000000000000  0.0018699899937576
  0.3749999464409617  0.1666699702868031  0.0018699899937576
  0.4999999886561249  0.0000000000000000  0.0018699899937576
  0.6249999407690242  0.1666699702868031  0.0018699899937576
  0.7499999829841874  0.0000000000000000  0.0018699899937576
  0.8749999350970866  0.1666699702868031  0.0018699899937576
  0.0000000000000000  0.3333300219343480  0.0018699899937576
  0.1249999521128992  0.4999999922211510  0.0018699899937576
  0.2499999943280624  0.3333300219343480  0.0018699899937576
  0.3749999464409617  0.4999999922211510  0.0018699899937576
  0.4999999886561249  0.3333300219343480  0.0018699899937576
  0.6249999407690242  0.4999999922211510  0.0018699899937576
  0.7499999829841874  0.3333300219343480  0.0018699899937576
  0.8749999350970866  0.4999999922211510  0.0018699899937576
  0.0000000000000000  0.6666700318690679  0.0018699899937576
  0.1249999521128992  0.8333299447943854  0.0018699899937576
  0.2499999943280624  0.6666700318690679  0.0018699899937576
  0.3749999464409617  0.8333299447943854  0.0018699899937576
  0.4999999886561249  0.6666700318690679  0.0018699899937576
  0.6249999407690242  0.8333299447943854  0.0018699899937576
  0.7499999829841874  0.6666700318690679  0.0018699899937576
  0.8749999350970866  0.8333299447943854  0.0018699899937576
  0.0000000000000000  0.2222199683821562  0.0864100026098289
  0.1249999521128992  0.0555599860957249  0.0864100026098289
  0.2499999943280624  0.2222199683821562  0.0864100026098289
  0.3749999464409617  0.0555599860957249  0.0864100026098289
  0.4999999886561249  0.2222199683821562  0.0864100026098289
  0.6249999407690242  0.0555599860957249  0.0864100026098289
  0.7499999829841874  0.2222199683821562  0.0864100026098289
  0.8749999350970866  0.0555599860957249  0.0864100026098289
  0.0000000000000000  0.5555599783168760  0.0864100026098289
  0.1249999521128992  0.3888900080300730  0.0864100026098289
  0.2499999943280624  0.5555599783168760  0.0864100026098289
  0.3749999464409617  0.3888900080300730  0.0864100026098289
  0.4999999886561249  0.5555599783168760  0.0864100026098289
  0.6249999407690242  0.3888900080300730  0.0864100026098289
  0.7499999829841874  0.5555599783168760  0.0864100026098289
  0.8749999350970866  0.3888900080300730  0.0864100026098289
  0.0000000000000000  0.8888900002512240  0.0864100026098289
  0.1249999521128992  0.7222199606033073  0.0864100026098289
  0.2499999943280624  0.8888900002512240  0.0864100026098289
  0.3749999464409617  0.7222199606033073  0.0864100026098289
  0.4999999886561249  0.8888900002512240  0.0864100026098289
  0.6249999407690242  0.7222199606033073  0.0864100026098289
  0.7499999829841874  0.8888900002512240  0.0864100026098289
  0.8749999350970866  0.7222199606033073  0.0864100026098289
  0.8681502249673174  0.2879304209537990  0.1701580979555053
  0.0092008975972622  0.4484988178300871  0.1728788231017565
  0.1283428631061195  0.6194817097688369  0.1733436178192324
  0.1192499698403259  0.9498325192478873  0.1687857132581706
  -0.0016472106487573  0.1112511693691858  0.1693196532822976
  0.7469357366240106  0.7897842712818203  0.1723435090833652
  0.1274687541022091  0.2824926148888423  0.1704535034345720
  -0.0079525607422215  0.7857971348342411  0.1734227558450285
  0.2469621717903253  0.7868225204175336  0.1730704650083763
  0.8686452665923432  0.9540323608172502  0.1724197915539449
  0.3763400984310999  0.9516468960724687  0.1736293940123008
  0.8725923311781998  0.6175683289228513  0.1704504181246130
  0.2515301311496790  0.1139238138449563  0.1698009196078568
  0.4961374568070089  0.1193407706874287  0.1724326808674011
  0.6223485893402374  0.9588000031310412  0.1721930660540986
  0.2555909669272599  0.4541202432175809  0.1723213498381514
  0.7516423211097413  0.1213130333619670  0.1727456155593012
  0.7550795973844174  0.4527090528987646  0.1713625877233638
  0.6177643847949658  0.2806199475392026  0.1740634974952136
  0.3733409308188271  0.2863713345194252  0.1736093251822120
  0.3727969967680061  0.6182197689743090  0.1747173530300653
  0.4951007153789827  0.7875789420381101  0.1703660673165165
  0.5017022894779801  0.4524110095596409  0.1765032224070947
  0.6190349775038962  0.6149717547433871  0.1706812831058714
  -0.0132842321354264  0.0165012906715377  0.2571493014340777
  0.1247561275475431  0.5113116632596113  0.2619395977971608
  0.8791566650834213  0.8520932855996253  0.2553710278758697
  0.2391508588711820  0.3425421608947440  0.2603659854167839
  0.8517529271008346  0.1857111013813266  0.2614487945375608
  0.6138320751125903  0.8576608827676933  0.2562597542248423
  0.7441227391115821  0.3538081830745580  0.2529947108730938
  0.2455495151570601  0.6791415932434326  0.2618338974048477
  0.1286099218737687  0.8542182495820193  0.2560715040872573
  0.7513174103634073  0.6842692002398797  0.2539868358910198
  -0.0005376463904690  0.6843808768627531  0.2604115454508482
  0.0012641573709677  0.3469728789977307  0.2571166490853403
  0.2489954176693205  0.0189206904591074  0.2578283099931503
  0.8830569818575709  0.5107661523610629  0.2586238772948830
  0.4902817941746221  0.0185715043131801  0.2599001050273549
  0.3786890172497279  0.8487590182019763  0.2611731677413997
  0.6071189517977608  0.1880005556055208  0.2590255832991150
  0.3615398441829316  0.1848840152754341  0.2558626410800870
  0.1080318291478655  0.1796847416920445  0.2582765332495778
  0.7392672930172992  0.0205580822961874  0.2643760931782179
  0.3631891147856900  0.5167608071199566  0.2683417669486352
  0.6302057727002915  0.5151793765854401  0.2632685365205232
  0.4841905906096147  0.3534407513142711  0.2659932542142703
  0.4978583867855348  0.6859668537269554  0.2581279195854451
  0.4845568512491404  0.8753378945129608  0.4752643159020034
  0.4723596444167988  0.7726610066997383  0.4613867981598516
  0.1415875534935580  0.9780361948649526  0.4985991133994992
  0.1562177589371868  1.0023633555637950  0.4431037983682179
  0.7184586267686730  0.6372259277652698  0.8688707601358866
  0.6137202373802986  0.6208272539135932  0.9077746914575919
  0.8353222339925089  0.6323609275149608  0.7868399487790836
  0.8835349714399147  0.6703008451756931  0.8382708143987023
  0.3312351031035726  0.1881674396519489  0.7765869481267482
  0.2742857611059913  0.1583476248383975  0.8265579635501645
  0.1966184097753286  0.5208632691190700  0.8999162554158722
  0.0587751598684881  0.5370244764099665  0.9029541663959567
  0.2309731224797015  0.8101690070664475  0.8366697295407511
  0.2994460237058604  0.8734424154652304  0.7972949197925802
  0.3247370657684558  0.1724504418177721  0.3373436534616022
  0.4248902567925966  0.1831898803181254  0.3823094705356643
  0.6040528718745314  0.1612006865947636  0.9183610389765436
  0.5466998945389887  0.2312873562194201  0.8798889128290291
  0.6355658217294703  0.1390393249924382  0.8248491484190260
  0.7236376315887771  0.1440224930531899  0.7798270760906740
  0.0683492981384553  0.2598900411593477  0.8694194257798344
  0.1094500124828118  0.3579404937480629  0.8906237866645598
  0.3387724951927815  0.3903262095295119  0.5771972351204174
  0.4090725070591109  0.3775399012032628  0.6303598020274642
  0.6910245700500079  0.3014726086146293  0.5333959090831457
  0.8306624616515016  0.2729037650869224  0.5486248504010440
  0.6466154051882903  0.8346881760370833  0.3473751006334533
  0.5941183191783580  0.8167164496272187  0.4013470124690421
  0.2351400720450268  0.8303725464024081  0.6892401822228112
  0.2941667407333256  0.9254571893780356  0.6927948036477215
  0.7646312797644585  0.8932399280896065  0.4118237143343872
  0.7442851779599938  0.9779049504522983  0.4505697054070699
  0.5817081065843041  0.1520322940563875  0.4331817711554776
  0.6195853027335604  0.2578353998923182  0.4269856990463496
  0.8218854051312569  0.3873363627392407  0.8382250505760700
  0.9526793697810816  0.3610515462684510  0.8409390152358556
  0.1612935937636863  0.6306318959825533  0.7604184093803132
  0.1599063365982416  0.5262717646686441  0.7842390304685115
  0.1104015887913574  0.2835258636710860  0.3539555506804019
  0.0245238944834782  0.3412822546212114  0.3888633461808972
  0.5057910719504265  0.8000814186041587  0.9129849819419197
  0.4469147155711919  0.8880037793706694  0.8826865369577781
  0.4049112028241076  0.3944641153004861  0.8325808975068599
  0.3111482980180077  0.4078729294121716  0.7863711476465772
  0.6308351314912568  0.9369795004082248  0.8837736939648269
  0.7299782030987509  1.0003825252935155  0.9077230378773956
  0.1945224005153182  0.7651471996266627  0.7558411626054227
  0.0791048057738802  0.7499260201557569  0.7234954084134667
  0.3024061107675939  0.5770682450433572  0.4851925220492112
  0.2399220433020345  0.5227668538799495  0.4422384410090483
  0.9071492722601985  0.4296232411502506  0.3446682679988464
  -0.0422156108005685  0.5047801021188311  0.3813646556637534
  0.9120122272789405  0.1767813592800275  0.8234150645868945
  0.8903150305012997  0.2644503195524678  0.7934335998082190
  0.7332170503740097  0.4288238327713798  0.9129252585202732
  0.6783401921425363  0.5008188577102738  0.8759267507728629
  0.7041913650569549  0.7109411565852065  0.6356758664326384
  0.5765351740891510  0.7030751703855950  0.6650677967007598
  0.3986872561166417  0.8548243161523243  0.6333905036175004
  0.5137898459726734  0.8013580036799818  0.6083361027971967
  0.2050623016862921  0.7886871396861739  0.5867307021320589
  0.1285062051846770  0.7300604348697359  0.5497238675235996
  0.4580962458666815  0.1933524495939632  0.6283240459424271
  0.5058896403403151  0.1025267715039047  0.6133927373505332
  0.8539489488016987  0.1360764969986087  0.5926733608019857
  0.9467131063763247  0.2168161016048878  0.6151533003618486
  0.8847242167523937  0.8397311374493356  0.3469379368364764
  0.0155574115405364  0.7952710616357225  0.3507367313996761
  0.9624863666843206  0.8519303099895287  0.7502060438318408
  0.9103535199687329  0.7503874306068473  0.7680188414594900
  0.8692290749315779  0.7391421922697320  0.6894610282164707
  0.8840017262160079  0.6656392303480624  0.6500427660158453
  0.3086155312601350  0.4159493005349525  0.4938625081440362
  0.4126981717153309  0.3482824946404831  0.5116126492881429
  0.6220093952946825  0.8985585706583974  0.7605003946169214
  0.6246995911430051  0.0093371105342669  0.7728665716642820
  0.6787872142344802  0.7714863581777177  0.8101065136186399
  0.5620751245546231  0.8091076666724804  0.8306375109562943
  0.1148037732479533  0.0331664938206707  0.3465035073060356
  0.0396860782634631  -0.0431742866705976  0.3718532110692445
  0.8020714467485164  0.5460397520356297  0.5129855330749061
  0.6710341771981433  0.5830345408936037  0.5185584735933630
  0.6529607976199009  0.0134552858567124  0.3886376088809557
  0.5604075906464269  0.0660646048415243  0.3541651968151544
  0.3573612877430669  0.5841598676640524  0.8465009446707630
  0.3687028590404667  0.5572509500467225  0.9008088491723970
  0.9724628302233508  0.8807700880361280  0.9082592957800375
  0.8331133100619063  0.8716015571153941  0.9002941111604302
  0.0662434767599128  0.6284422501259184  0.8338968138429208
  0.0570085498081044  0.6992425732668316  0.8795555268825365
  0.8036709032423900  -0.0356755851232870  0.5948523626995180
  0.6838479031136728  0.0226769978992980  0.6103400556400908
  0.1131954409692650  0.3492566462972772  0.6542451435480883
  0.2207785513545038  0.4140163241894209  0.6482459305090660
  0.5410700200890722  0.5789420137087601  0.8235171431568828
  0.4675353826710448  0.5028001621331264  0.7913472930821834
  0.4537973235783064  0.3012693806555512  0.7677901651117736
  0.5466893573405073  0.2088068554836635  0.7656595203031267
  0.2318164840679920  0.7104820738514750  0.9100819707913094
  0.1566233328794202  0.8052715809463342  0.9177760639254571
  0.3025367057819757  0.1827868212217902  0.9165995590659458
  0.4246357324662542  0.1497323698969314  0.8842383339936136
  0.9093571675022628  0.5094295299837664  0.6918410828071216
  0.0059137654197336  0.5099424841835781  0.6456105872795650
  0.1378783375845596  0.1908042408497159  0.6245872051079241
  0.0737695733499862  0.2018917981671790  0.6787537913358318
  0.8777842859912525  0.4788346362423887  0.5874343572517990
  0.8457965210459463  0.4168828849363729  0.5418305087498133
  0.1412123966700652  0.3946691172740885  0.7391185889676926
  0.1236324338306395  0.3659610083035621  0.7982144115315993
  0.9749690066768305  0.5515707320706849  0.7671069644560123
  0.8763931192795613  0.4721698757390286  0.7808512803579675
  0.5370060369402964  0.2400834290296579  0.4961335344028088
  0.5241273415348682  0.2211644684714066  0.5565116739275754
  0.0083324002794884  0.5640083303179466  0.5272785458563480
  0.1171365427494723  0.6152226465916337  0.5008259374036071
  0.4926078691500057  0.5274033419158531  0.5788309345309843
  0.5749973651408445  0.6152265583711710  0.5961815718845834
  0.3176847489486849  0.0342218620077294  0.7711730110001215
  0.4251277382666879  0.9634337326060922  0.7579573372987191
  0.1573847161752064  0.9647616106000410  0.8671821630899603
  0.0338549827251714  0.9609735891917088  0.8350997855747785
  0.5319017425928856  0.7183611078684361  0.7526999260632198
  0.4874393077319261  0.6449247809397994  0.7184588821582073
  0.1257355694408959  0.9164453552566227  0.7827883452944522
  0.0726198062543887  0.0047939645998012  0.7502760656405569
  -0.0445436530597746  0.1526741255682544  0.5284982090803028
  -0.0116003861764223  0.0532827501299605  0.5039103772792424
  0.2161672584465544  0.7296087707857056  0.3907345587194710
  0.2259429638876931  0.7773268645131602  0.3374991439226001
  0.4978632924753816  0.2831394834810827  0.6995035908403683
  0.5921599230791667  0.3170771469262342  0.6559847033948544
  0.4271361597645731  0.6506419548917626  0.5322912052153707
  0.3245560097019234  0.7225892903957900  0.5169731961535311
  -0.0586769804861140  0.8889175316887210  0.5177201150175414
  0.9282410382816513  0.9287873780092660  0.4586157677189910
  0.5946520547701591  0.0014224481200325  0.6873218240827129
  0.5290260408425681  0.9634387790571523  0.6441713307190209
  0.3215218704276067  0.0365762782279581  0.8895974180841554
  0.3060272214932058  0.9513312053863352  0.9201122759067680
  0.0014579796849016  0.0815852645294490  0.8841121294664704
  -0.0490979362650033  0.1655154081398663  0.9148208991013559
  0.8896431384320275  0.8182470838206307  0.6084877735995939
  -0.0179344829286928  0.9019442316310203  0.6054572340089304
  0.0672812940810533  1.0245195136884349  0.6626889538773580
  0.1427065708939483  0.9403774453589326  0.6460690947831034
  0.5794939953852692  0.0044550608020038  0.5047574644678400
  0.6940336953410203  0.0250651319926679  0.5286269779966856
  0.7911203168262292  0.3002644430684445  0.4668693271792395
  0.8154368822789559  0.3702908416585466  0.4245611037339273
  1.0236189035953291  0.1461348841892688  0.7595787863100106
  0.1625904485164414  0.1277130175659777  0.7595494256795551
  0.1165226909726167  0.5650590950078895  0.3658172694809612
  0.0164705831376048  0.6176982541634205  0.3422320923659636
  0.3617754944456396  0.9580980279940496  0.5207272481730735
  0.4486856595865163  0.9222716980249047  0.5566129388285654
  0.3065440090924196  0.1358157591183179  0.5864394826033329
  0.1980302637055440  0.0770705717098951  0.6012719418500511
  0.4570636128315883  0.3674564125723629  0.9128640401515481
  0.5607352404835667  0.3796556066145012  0.8767751631469296
  0.3996404242438655  0.3386977208582815  0.3601125242054941
  0.4096336107360685  0.5361337853582288  0.4183692714853666
  0.6078987101167819  0.5980531121261740  0.4049177732521820
  0.2329812186453420  0.4118219007531471  0.3466206676295035
  0.3837754033486825  0.6282820335552662  0.3729223803130588
  0.5723870557258133  0.6374520926955459  0.3467806144950815
  0.6197040246842840  0.3428970968758492  0.3508694247835145
  0.7165827687943829  0.4893875752970644  0.3553118213848543
  0.4421785536567500  0.4023633131411505  0.3442208821758032
  0.5669285316346709  0.4040436617517154  0.3439903848596034
  0.3741958684396522  0.4859735207907264  0.3461133530699215
  0.6258326670374675  0.4980273177774252  0.3454062323727248
  0.4234781418721633  0.5601787858442218  0.3782914903846762
  0.5567981875026550  0.5749828206898208  0.3721193192211351
  0.4950336088525960  0.8325286864297626  0.4464857507708759
  0.2056125058545543  1.0020192653650184  0.4746936847179659
  0.6442283231773039  0.6038422350203011  0.8744260771004796
  0.8188111305512777  0.6847975283166692  0.8122386070771018
  0.2810005259579283  0.1388480838892424  0.7911982800211178
  0.1220972711768173  0.4963610970962806  0.9152549679564830
  0.2552787028446026  0.8143295820816572  0.7999095455003788
  0.3432418180179042  0.1586151182830786  0.3750550996055863
  0.5741533796484370  0.1682814354667291  0.8831851400636056
  0.6381129294520128  0.1380142744510691  0.7892834694657603
  0.0920467727731335  0.3238730839169101  0.8596554246336146
  0.3472234270369096  0.4125616041327039  0.6113724589564887
  0.7812803270418177  0.3173781765110024  0.5307184924670314
  0.6721378363162313  0.8201243632265477  0.3824583558892771
  0.2619975520952395  0.8830785580604884  0.6704366507678400
  0.8054741364131740  0.9529982069418339  0.4250181889605963
  0.5533628474445407  0.2173684342105845  0.4357449300507047
  0.8855217086476220  0.3673701983657734  0.8160167944468518
  0.1177797236422098  0.5906292692613634  0.7832311465203227
  0.0776871916419665  0.2832245793437556  0.3903970466030559
  0.5184046940006035  0.8418220973538251  0.8841493691440907
  0.3962864167784007  0.3997683774168501  0.7948484086855564
  0.7099812116616416  0.9705053461962816  0.8748207742042804
  0.1669423858957433  0.7377877398274441  0.7222378349964511
  0.2453909988836822  0.5234643578261495  0.4796463363074453
  0.9344157507874139  0.4332083004051645  0.3803356402054170
  0.9024714395060315  0.1959062856816616  0.7880904174917546
  0.7105866835044621  0.4354789489933671  0.8773427693500074
  0.6163410910127776  0.7020086929965701  0.6300612482672934
  0.4694823490277374  0.8608737300677674  0.6103313809114186
  0.1918812502215886  0.7788058718216201  0.5505440981718367
  0.4590770219402988  0.1500371820622904  0.6008718983937691
  0.8972115835817562  0.1948788645647015  0.5874978922414074
  0.9500531995203499  0.8246750641330474  0.3699052570730639
  0.9365175511091481  0.7885024997842099  0.7394200894109921
  0.8597961941706823  0.7304688641323849  0.6538934325206625
  0.3209080235793449  0.3532188243064248  0.5111314309167864
  0.6012843910074865  0.9607965441166748  0.7474521116504030
  0.6069166236679185  0.7972673934975982  0.7992779130290147
  0.0897409943148369  0.0117396838219909  0.3807131703092183
  0.7486392197047028  0.5979596889762745  0.5031440348658509
  0.5792076058165990  0.0514862318292356  0.3894366322327458
  0.3045694787952791  0.5775746491263972  0.8773442237319354
  0.9006424333755223  0.8514072625338552  0.9211604238343410
  0.0153982344301234  0.6446040150385522  0.8634939976744159
  0.7580032678771705  0.0259452684539044  0.5894299902681709
  0.1491747528889307  0.4033342409419330  0.6695743236776538
  0.4749279145031446  0.5710408734101067  0.7974772890170729
  0.4751004001504455  0.2457542568773154  0.7475599536065027
  0.1936554966831144  0.7623196208244060  0.8925811393672584
  0.3310290600123334  0.1520956478941928  0.8840812776133173
  -0.0758694613322584  0.5280006584845603  0.6548895310909957
  0.0822237928004729  0.2307550865586229  0.6458216747721081
  0.9056206328661282  0.4634963814610060  0.5532181940023317
  0.1679708027485653  0.4063786215414311  0.7749978997251552
  0.8856931210958663  0.5286821883373853  0.7621796890513273
  0.5518375507904045  0.2608338490005041  0.5304010356117183
  0.0362053414951115  0.6261652380023400  0.5171335588436217
  0.5380955266304047  0.5802953031663185  0.5647993523999897
  0.3370294055985940  0.9727160440734252  0.7566278740347481
  0.0718176495306858  0.9513479203812545  0.8675686868570658
  0.5165720582896027  0.7099758958717933  0.7173726750921928
  0.0463181745134102  0.9495470461540371  0.7709921703540905
  -0.0368414179414633  0.1176820424492740  0.4961790873538321
  0.2198294556874301  0.7884669851877157  0.3728379773113841
  0.5061527175790193  0.3068493901197645  0.6637442048784598
  0.3847631308029593  0.6760576708510099  0.5036803319827156
  -0.0148175411694322  0.9111235825872376  0.4875106545721348
  0.5764011382495106  0.0170914389841642  0.6541967104975067
  0.3141322777223491  0.9680801971214867  0.8858118748382621
  -0.0272104107805936  0.1461543351402539  0.8818147677933081
  0.9103672758183105  0.8737304172225220  0.5892347374287487
  0.0856024147267930  0.9869764227227836  0.6318288699655780
  0.6597035754098878  0.0278052526175693  0.4955185335199728
  0.7722395418615203  0.3076956350345675  0.4307809036758363
  0.0857759083030703  0.1220064343347199  0.7366513961870651
  0.0499579164680449  0.6054908816968777  0.3750666656741323
  0.4485189637214871  0.9561792698653000  0.5251383475927844
  0.2180066893819809  0.1301297485321036  0.5802809746855651
  0.4855543062429540  0.3458773005638865  0.8802450498912837
  0.2581381858900576  0.4644370355216839  0.3668993225188334
  0.8708301375073181  0.7328399437081839  0.4564484543840709
  -0.0997565582809658  0.1342896929160676  0.3964287146807297
  0.3482527381637122  0.9481043311327502  0.3847032119498826
  0.2223932819120937  0.2089575640814035  0.4658090236673660
